! hatab_sma_fr4_step90: multiline TRL calibrated (TUGMultilineTRL, scikit-rf 2.1.0)
! raw data ZiadHatab/SMA-PCB-mTRL-kit @ 031c694, switch terms corrected
! reference impedance: characteristic impedance of the 2.941 mm 50 Ohm line,
! NOT 50 Ohm; the R value below is a placeholder required by the format
# Hz S RI R 1
100000000.000000 +5.455202898e-03 +4.938016674e-02 +9.918782279e-01 -9.383347002e-02 +9.930153547e-01 -9.231496558e-02 +5.525014443e-03 +4.918822455e-02
150000000.000000 +1.139917025e-02 +7.313848049e-02 +9.853996503e-01 -1.392987509e-01 +9.857055047e-01 -1.383068404e-01 +1.130260271e-02 +7.330538388e-02
200000000.000000 +1.915936580e-02 +9.590599593e-02 +9.761180188e-01 -1.839387242e-01 +9.759914424e-01 -1.815974066e-01 +1.905126040e-02 +9.584493524e-02
250000000.000000 +2.895778230e-02 +1.177842677e-01 +9.633966094e-01 -2.273457097e-01 +9.642402743e-01 -2.258280381e-01 +2.912878286e-02 +1.178278194e-01
300000000.000000 +4.075914961e-02 +1.382649806e-01 +9.481263613e-01 -2.701864341e-01 +9.497759735e-01 -2.672327917e-01 +4.093517100e-02 +1.385937262e-01
350000000.000000 +5.386057473e-02 +1.577587722e-01 +9.316741984e-01 -3.117062362e-01 +9.335730194e-01 -3.086222108e-01 +5.467077360e-02 +1.575185326e-01
400000000.000000 +6.840463565e-02 +1.757171643e-01 +9.124345569e-01 -3.508038333e-01 +9.148040059e-01 -3.481753891e-01 +6.979385440e-02 +1.750911622e-01
450000000.000000 +8.437678770e-02 +1.920243484e-01 +8.921041773e-01 -3.887760279e-01 +8.940188341e-01 -3.863270560e-01 +8.664717003e-02 +1.910567269e-01
500000000.000000 +1.012054446e-01 +2.068326251e-01 +8.700697754e-01 -4.244971134e-01 +8.710709964e-01 -4.234337293e-01 +1.045080872e-01 +2.051341668e-01
550000000.000000 +1.190266714e-01 +2.198802568e-01 +8.466307753e-01 -4.589237465e-01 +8.470144032e-01 -4.579227568e-01 +1.235245502e-01 +2.173085595e-01
600000000.000000 +1.376041451e-01 +2.314983116e-01 +8.215936706e-01 -4.916310657e-01 +8.227004297e-01 -4.905067529e-01 +1.432692642e-01 +2.279043405e-01
650000000.000000 +1.561786053e-01 +2.412406445e-01 +7.956263254e-01 -5.228461711e-01 +7.967662786e-01 -5.218398711e-01 +1.636051375e-01 +2.358772610e-01
700000000.000000 +1.750391902e-01 +2.492951191e-01 +7.687697313e-01 -5.519475446e-01 +7.693319681e-01 -5.511598054e-01 +1.845029529e-01 +2.419234172e-01
750000000.000000 +1.944502673e-01 +2.557564177e-01 +7.405956251e-01 -5.790382918e-01 +7.413650443e-01 -5.795786863e-01 +2.057329642e-01 +2.460583590e-01
800000000.000000 +2.136321617e-01 +2.608716246e-01 +7.116450365e-01 -6.054017008e-01 +7.130671441e-01 -6.051769792e-01 +2.272395004e-01 +2.481436731e-01
850000000.000000 +2.331351946e-01 +2.641087066e-01 +6.822202713e-01 -6.297068475e-01 +6.838369152e-01 -6.290330368e-01 +2.483998474e-01 +2.482583597e-01
900000000.000000 +2.524247458e-01 +2.657331704e-01 +6.527628430e-01 -6.523158028e-01 +6.541367398e-01 -6.517738616e-01 +2.695173901e-01 +2.471586070e-01
950000000.000000 +2.712722991e-01 +2.660636703e-01 +6.229311154e-01 -6.729334282e-01 +6.236267029e-01 -6.730580488e-01 +2.901077451e-01 +2.437129928e-01
1000000000.000000 +2.895659989e-01 +2.649496023e-01 +5.928819681e-01 -6.926033107e-01 +5.937391894e-01 -6.921943175e-01 +3.099208057e-01 +2.390463975e-01
1050000000.000000 +3.085146566e-01 +2.626969688e-01 +5.626506972e-01 -7.102863332e-01 +5.630350874e-01 -7.105785446e-01 +3.291426936e-01 +2.336455787e-01
1100000000.000000 +3.259442605e-01 +2.582797862e-01 +5.318695885e-01 -7.274722250e-01 +5.326846156e-01 -7.271568524e-01 +3.476257076e-01 +2.264465999e-01
1150000000.000000 +3.435937920e-01 +2.528354371e-01 +5.009371625e-01 -7.427317007e-01 +5.024385076e-01 -7.423722406e-01 +3.661856696e-01 +2.178268625e-01
1200000000.000000 +3.608179022e-01 +2.463126307e-01 +4.699816367e-01 -7.565274244e-01 +4.710510523e-01 -7.563644483e-01 +3.831951445e-01 +2.081394436e-01
1250000000.000000 +3.772682543e-01 +2.380823321e-01 +4.388779587e-01 -7.693710734e-01 +4.398078708e-01 -7.693731028e-01 +3.995458702e-01 +1.978381380e-01
1300000000.000000 +3.929088115e-01 +2.284438444e-01 +4.079717301e-01 -7.805570488e-01 +4.086915366e-01 -7.809299421e-01 +4.146093123e-01 +1.865175046e-01
1350000000.000000 +4.082160014e-01 +2.175958989e-01 +3.769581833e-01 -7.906842657e-01 +3.776342694e-01 -7.909291862e-01 +4.290807998e-01 +1.747271258e-01
1400000000.000000 +4.231253196e-01 +2.057692390e-01 +3.463503411e-01 -7.996742635e-01 +3.470282017e-01 -7.999186310e-01 +4.423294427e-01 +1.629431726e-01
1450000000.000000 +4.371561485e-01 +1.925528595e-01 +3.158211093e-01 -8.078357985e-01 +3.168346470e-01 -8.078565054e-01 +4.550118030e-01 +1.505709692e-01
1500000000.000000 +4.506256890e-01 +1.789544581e-01 +2.851956798e-01 -8.148047431e-01 +2.864620177e-01 -8.145036217e-01 +4.665735279e-01 +1.375950378e-01
1550000000.000000 +4.626833379e-01 +1.640252483e-01 +2.556157071e-01 -8.205082159e-01 +2.560560809e-01 -8.203950022e-01 +4.771920794e-01 +1.239155386e-01
1600000000.000000 +4.739406738e-01 +1.487043754e-01 +2.253666973e-01 -8.258428721e-01 +2.262152242e-01 -8.255981442e-01 +4.868474546e-01 +1.092403259e-01
1650000000.000000 +4.841078939e-01 +1.328823422e-01 +1.956154073e-01 -8.297883992e-01 +1.966888016e-01 -8.295116134e-01 +4.954734237e-01 +9.389199643e-02
1700000000.000000 +4.928394712e-01 +1.168334455e-01 +1.660947996e-01 -8.325769136e-01 +1.674853532e-01 -8.322446068e-01 +5.030072976e-01 +7.806813800e-02
1750000000.000000 +5.003421008e-01 +1.005709631e-01 +1.376148530e-01 -8.348567649e-01 +1.379857175e-01 -8.349341927e-01 +5.093215045e-01 +6.221191751e-02
1800000000.000000 +5.070336889e-01 +8.369361910e-02 +1.085225893e-01 -8.373945622e-01 +1.095403756e-01 -8.375423184e-01 +5.144492719e-01 +4.583236718e-02
1850000000.000000 +5.127199395e-01 +6.686486792e-02 +7.992171153e-02 -8.383933752e-01 +8.071951883e-02 -8.387905686e-01 +5.184814190e-01 +2.855993818e-02
1900000000.000000 +5.165263953e-01 +4.992918570e-02 +5.159788118e-02 -8.390251248e-01 +5.194823685e-02 -8.394480699e-01 +5.216045045e-01 +1.141062440e-02
1950000000.000000 +5.193861817e-01 +3.233911670e-02 +2.348000493e-02 -8.389898919e-01 +2.346465678e-02 -8.396030154e-01 +5.234400550e-01 -5.196462180e-03
2000000000.000000 +5.213997345e-01 +1.485905056e-02 -4.202498575e-03 -8.383628029e-01 -3.910798780e-03 -8.389319687e-01 +5.236547064e-01 -2.120291230e-02
2050000000.000000 +5.218160343e-01 -3.015756388e-03 -3.254591452e-02 -8.372229072e-01 -3.171550726e-02 -8.374355459e-01 +5.232780824e-01 -3.718621179e-02
2100000000.000000 +5.218085108e-01 -2.173880571e-02 -5.973527123e-02 -8.348497825e-01 -5.948303186e-02 -8.354799688e-01 +5.221050690e-01 -5.249237857e-02
2150000000.000000 +5.199427875e-01 -4.025514957e-02 -8.705736885e-02 -8.326243752e-01 -8.717781538e-02 -8.336064890e-01 +5.198475075e-01 -6.809002182e-02
2200000000.000000 +5.173544142e-01 -5.846684325e-02 -1.145425670e-01 -8.296470178e-01 -1.147132998e-01 -8.302314689e-01 +5.168260343e-01 -8.260218439e-02
2250000000.000000 +5.130345020e-01 -7.678742073e-02 -1.421365459e-01 -8.262492249e-01 -1.413363111e-01 -8.270999454e-01 +5.128625210e-01 -9.659265935e-02
2300000000.000000 +5.081606162e-01 -9.445503948e-02 -1.688529950e-01 -8.216923996e-01 -1.685191606e-01 -8.226382290e-01 +5.077176142e-01 -1.106887708e-01
2350000000.000000 +5.028597360e-01 -1.120027479e-01 -1.946993839e-01 -8.168884238e-01 -1.951624122e-01 -8.171399103e-01 +5.024337045e-01 -1.241901889e-01
2400000000.000000 +4.951099025e-01 -1.290727589e-01 -2.220648648e-01 -8.118547652e-01 -2.230332296e-01 -8.122391987e-01 +4.955731321e-01 -1.378165064e-01
2450000000.000000 +4.870261840e-01 -1.453539170e-01 -2.485740915e-01 -8.059278125e-01 -2.502021744e-01 -8.060886342e-01 +4.873277589e-01 -1.511101898e-01
2500000000.000000 +4.777045342e-01 -1.608770216e-01 -2.758729416e-01 -7.988521548e-01 -2.775853857e-01 -7.994531744e-01 +4.783664813e-01 -1.641558891e-01
2550000000.000000 +4.673418837e-01 -1.753812889e-01 -3.033889664e-01 -7.915743354e-01 -3.049548767e-01 -7.920345580e-01 +4.680956175e-01 -1.771306732e-01
2600000000.000000 +4.562912733e-01 -1.886840167e-01 -3.309439131e-01 -7.831687629e-01 -3.324184708e-01 -7.836522724e-01 +4.565917413e-01 -1.902593143e-01
2650000000.000000 +4.444084308e-01 -2.008171745e-01 -3.581681775e-01 -7.743943081e-01 -3.604116110e-01 -7.742702155e-01 +4.438173255e-01 -2.027489202e-01
2700000000.000000 +4.312955370e-01 -2.117281953e-01 -3.861776744e-01 -7.646920044e-01 -3.882552426e-01 -7.641183988e-01 +4.297150958e-01 -2.147331911e-01
2750000000.000000 +4.175813211e-01 -2.219965119e-01 -4.143355610e-01 -7.538034690e-01 -4.164710088e-01 -7.532251177e-01 +4.145874933e-01 -2.263987876e-01
2800000000.000000 +4.033164861e-01 -2.301478758e-01 -4.425699233e-01 -7.419171745e-01 -4.444843679e-01 -7.417116876e-01 +3.982719669e-01 -2.373659689e-01
2850000000.000000 +3.883919811e-01 -2.375046340e-01 -4.714171045e-01 -7.291287402e-01 -4.731113418e-01 -7.285360661e-01 +3.803441215e-01 -2.478004705e-01
2900000000.000000 +3.729942003e-01 -2.433337764e-01 -5.000957180e-01 -7.151060861e-01 -5.017293519e-01 -7.148692503e-01 +3.618441097e-01 -2.563245194e-01
2950000000.000000 +3.566159344e-01 -2.481828440e-01 -5.292721367e-01 -6.994519548e-01 -5.302963899e-01 -6.993834865e-01 +3.417951595e-01 -2.636492265e-01
3000000000.000000 +3.398320141e-01 -2.521287938e-01 -5.584913631e-01 -6.826541206e-01 -5.585478532e-01 -6.830892297e-01 +3.218289361e-01 -2.697627342e-01
3050000000.000000 +3.223338290e-01 -2.541975085e-01 -5.879640413e-01 -6.644709387e-01 -5.872691545e-01 -6.654258836e-01 +3.007732539e-01 -2.746025319e-01
3100000000.000000 +3.038905370e-01 -2.550300410e-01 -6.169471317e-01 -6.447155865e-01 -6.154299247e-01 -6.463426121e-01 +2.796271451e-01 -2.772222112e-01
3150000000.000000 +2.850439500e-01 -2.548563124e-01 -6.458966332e-01 -6.236803761e-01 -6.443588732e-01 -6.247439447e-01 +2.570784476e-01 -2.783917055e-01
3200000000.000000 +2.656013620e-01 -2.538027375e-01 -6.738151543e-01 -6.018451476e-01 -6.733447587e-01 -6.016377229e-01 +2.354879761e-01 -2.778957020e-01
3250000000.000000 +2.459480513e-01 -2.509677164e-01 -7.017428168e-01 -5.786105026e-01 -7.022358508e-01 -5.769932252e-01 +2.135363701e-01 -2.751193426e-01
3300000000.000000 +2.258781876e-01 -2.464224819e-01 -7.289324397e-01 -5.531222235e-01 -7.299472772e-01 -5.508861978e-01 +1.921443619e-01 -2.701488024e-01
3350000000.000000 +2.059059220e-01 -2.409387843e-01 -7.560275958e-01 -5.251875427e-01 -7.569808629e-01 -5.237549495e-01 +1.713162474e-01 -2.631999253e-01
3400000000.000000 +1.860151234e-01 -2.335242266e-01 -7.823054276e-01 -4.953571395e-01 -7.831709921e-01 -4.952044535e-01 +1.508029450e-01 -2.544908092e-01
3450000000.000000 +1.661346887e-01 -2.249276792e-01 -8.075241970e-01 -4.636548885e-01 -8.080194591e-01 -4.656161131e-01 +1.308903804e-01 -2.440528825e-01
3500000000.000000 +1.468433018e-01 -2.149703452e-01 -8.319898970e-01 -4.300596561e-01 -8.327078840e-01 -4.314060421e-01 +1.121572866e-01 -2.327258272e-01
3550000000.000000 +1.283206007e-01 -2.032704332e-01 -8.539326302e-01 -3.938261303e-01 -8.550039439e-01 -3.960823450e-01 +9.461943231e-02 -2.191693883e-01
3600000000.000000 +1.104818110e-01 -1.901276957e-01 -8.752085175e-01 -3.563517965e-01 -8.756224476e-01 -3.608124813e-01 +7.866387250e-02 -2.042146193e-01
3650000000.000000 +9.418873000e-02 -1.756570484e-01 -8.948455437e-01 -3.177528892e-01 -8.945399952e-01 -3.238140632e-01 +6.429650003e-02 -1.876990033e-01
3700000000.000000 +7.918115285e-02 -1.603431804e-01 -9.121093194e-01 -2.771913536e-01 -9.115795678e-01 -2.842012671e-01 +5.113965871e-02 -1.707417827e-01
3750000000.000000 +6.528665781e-02 -1.436844465e-01 -9.267556288e-01 -2.356565654e-01 -9.261148299e-01 -2.434165062e-01 +4.009899004e-02 -1.528297511e-01
3800000000.000000 +5.322856716e-02 -1.262407529e-01 -9.389643846e-01 -1.933831829e-01 -9.386808955e-01 -2.017873552e-01 +3.067221685e-02 -1.342842486e-01
3850000000.000000 +4.238593191e-02 -1.084874200e-01 -9.487595981e-01 -1.518465703e-01 -9.489256474e-01 -1.596028900e-01 +2.321882237e-02 -1.149049178e-01
3900000000.000000 +3.403893286e-02 -9.005325935e-02 -9.564575668e-01 -1.092522381e-01 -9.576862629e-01 -1.165038844e-01 +1.833518354e-02 -9.592613877e-02
3950000000.000000 +2.620279567e-02 -7.154711651e-02 -9.613593127e-01 -6.562688206e-02 -9.632623625e-01 -7.311563845e-02 +1.462079960e-02 -7.637492939e-02
4000000000.000000 +2.014979850e-02 -5.269985995e-02 -9.636262382e-01 -2.186408849e-02 -9.665397099e-01 -2.898836519e-02 +1.311970656e-02 -5.770526362e-02
4050000000.000000 +1.561649178e-02 -3.407392868e-02 -9.672102050e-01 +1.551422390e-02 -9.642457596e-01 +1.996202760e-02 +1.350425955e-02 -3.841724187e-02
4100000000.000000 +1.320239791e-02 -1.496137266e-02 -9.658247842e-01 +5.891560553e-02 -9.627991546e-01 +6.401607830e-02 +1.519359576e-02 -1.972624817e-02
4150000000.000000 +1.220218307e-02 +3.909280144e-03 -9.621185873e-01 +1.025007780e-01 -9.587481144e-01 +1.078383692e-01 +1.933661763e-02 -1.950154722e-03
4200000000.000000 +1.321493362e-02 +2.232706782e-02 -9.560897098e-01 +1.460302339e-01 -9.527682156e-01 +1.511468692e-01 +2.544905901e-02 +1.587667738e-02
4250000000.000000 +1.560884089e-02 +4.076594819e-02 -9.473270471e-01 +1.885822650e-01 -9.438853837e-01 +1.935891082e-01 +3.263588628e-02 +3.243824578e-02
4300000000.000000 +2.006053768e-02 +5.854129820e-02 -9.365127149e-01 +2.303951796e-01 -9.329757056e-01 +2.354639069e-01 +4.160911690e-02 +4.884402913e-02
4350000000.000000 +2.617822299e-02 +7.587786173e-02 -9.236255203e-01 +2.713431970e-01 -9.198049288e-01 +2.761830718e-01 +5.203106684e-02 +6.420874255e-02
4400000000.000000 +3.375225781e-02 +9.311504348e-02 -9.085144973e-01 +3.114737399e-01 -9.051368571e-01 +3.159098049e-01 +6.415299710e-02 +7.871253160e-02
4450000000.000000 +4.310354031e-02 +1.094292498e-01 -8.913184092e-01 +3.502996309e-01 -8.879553605e-01 +3.545774062e-01 +7.731152909e-02 +9.255757316e-02
4500000000.000000 +5.396997751e-02 +1.257178367e-01 -8.721527396e-01 +3.881099253e-01 -8.687562162e-01 +3.917808985e-01 +9.160448532e-02 +1.056277250e-01
4550000000.000000 +6.642369657e-02 +1.413853344e-01 -8.509213315e-01 +4.245529935e-01 -8.475962166e-01 +4.276477236e-01 +1.074440866e-01 +1.178500617e-01
4600000000.000000 +8.062174416e-02 +1.564482770e-01 -8.279251330e-01 +4.591960646e-01 -8.248798891e-01 +4.620886081e-01 +1.245877394e-01 +1.298028285e-01
4650000000.000000 +9.660279457e-02 +1.704809771e-01 -8.030933970e-01 +4.928311999e-01 -7.998112805e-01 +4.952194808e-01 +1.426284256e-01 +1.402137265e-01
4700000000.000000 +1.136512857e-01 +1.841506797e-01 -7.764436694e-01 +5.242982801e-01 -7.729783810e-01 +5.268266242e-01 +1.621821715e-01 +1.501242219e-01
4750000000.000000 +1.328632172e-01 +1.963265318e-01 -7.485741156e-01 +5.541659968e-01 -7.450386743e-01 +5.564170992e-01 +1.829077718e-01 +1.592175621e-01
4800000000.000000 +1.535130055e-01 +2.069425734e-01 -7.189696931e-01 +5.821394803e-01 -7.153362747e-01 +5.840868695e-01 +2.042634019e-01 +1.669410426e-01
4850000000.000000 +1.754688656e-01 +2.157935231e-01 -6.882566291e-01 +6.081215917e-01 -6.843309839e-01 +6.106801446e-01 +2.258720436e-01 +1.730167499e-01
4900000000.000000 +1.984376880e-01 +2.226314198e-01 -6.564693968e-01 +6.321757361e-01 -6.520877502e-01 +6.347861735e-01 +2.482457350e-01 +1.777444639e-01
4950000000.000000 +2.225630352e-01 +2.270407052e-01 -6.239131622e-01 +6.541809860e-01 -6.190284368e-01 +6.569165797e-01 +2.699307935e-01 +1.815477180e-01
5000000000.000000 +2.471042850e-01 +2.293194547e-01 -5.909304826e-01 +6.746463034e-01 -5.856688619e-01 +6.771794256e-01 +2.913009268e-01 +1.832865502e-01
5050000000.000000 +2.715780738e-01 +2.289902272e-01 -5.572001813e-01 +6.931224214e-01 -5.521025648e-01 +6.952101948e-01 +3.129006283e-01 +1.842094167e-01
5100000000.000000 +2.959154914e-01 +2.259870354e-01 -5.233058931e-01 +7.097194854e-01 -5.184135972e-01 +7.117675055e-01 +3.336554068e-01 +1.841791667e-01
5150000000.000000 +3.202630892e-01 +2.214272257e-01 -4.895779650e-01 +7.245171071e-01 -4.847722514e-01 +7.260599244e-01 +3.538031923e-01 +1.823529559e-01
5200000000.000000 +3.434354642e-01 +2.146137702e-01 -4.560451728e-01 +7.370943966e-01 -4.506729732e-01 +7.391110062e-01 +3.736280876e-01 +1.799690773e-01
5250000000.000000 +3.661750386e-01 +2.058774707e-01 -4.225424078e-01 +7.485378502e-01 -4.176206316e-01 +7.500316625e-01 +3.918328026e-01 +1.760934605e-01
5300000000.000000 +3.880670327e-01 +1.956213566e-01 -3.895063309e-01 +7.584027512e-01 -3.845844274e-01 +7.595592887e-01 +4.099158022e-01 +1.704901637e-01
5350000000.000000 +4.093496730e-01 +1.834565196e-01 -3.569229738e-01 +7.666762093e-01 -3.524878389e-01 +7.674838824e-01 +4.271135077e-01 +1.646875674e-01
5400000000.000000 +4.288461668e-01 +1.705621047e-01 -3.248057266e-01 +7.735346489e-01 -3.204753657e-01 +7.742233467e-01 +4.425679543e-01 +1.572892227e-01
5450000000.000000 +4.470919622e-01 +1.562083426e-01 -2.934026769e-01 +7.792640961e-01 -2.889944771e-01 +7.794560694e-01 +4.579054665e-01 +1.486770536e-01
5500000000.000000 +4.640184462e-01 +1.408144604e-01 -2.627876420e-01 +7.838049770e-01 -2.582625455e-01 +7.841429250e-01 +4.719732747e-01 +1.394922273e-01
5550000000.000000 +4.799732239e-01 +1.247310600e-01 -2.323465933e-01 +7.874693371e-01 -2.280031829e-01 +7.871819782e-01 +4.842303242e-01 +1.290355103e-01
5600000000.000000 +4.933155948e-01 +1.072863174e-01 -2.026350140e-01 +7.900020989e-01 -1.983197424e-01 +7.899220915e-01 +4.957092416e-01 +1.179529579e-01
5650000000.000000 +5.052960604e-01 +8.971832316e-02 -1.737667968e-01 +7.921946929e-01 -1.691481065e-01 +7.921017738e-01 +5.049742896e-01 +1.067199744e-01
5700000000.000000 +5.153641313e-01 +7.143700298e-02 -1.453654582e-01 +7.939893103e-01 -1.403230122e-01 +7.936310813e-01 +5.130376463e-01 +9.453554002e-02
5750000000.000000 +5.237299969e-01 +5.307513843e-02 -1.170229196e-01 +7.950065409e-01 -1.118251238e-01 +7.947490684e-01 +5.196498459e-01 +8.158162533e-02
5800000000.000000 +5.302005355e-01 +3.411827335e-02 -8.900214915e-02 +7.964725540e-01 -8.396611793e-02 +7.956699551e-01 +5.245603432e-01 +6.855037473e-02
5850000000.000000 +5.345882584e-01 +1.542321166e-02 -6.112394718e-02 +7.975471827e-01 -5.636441784e-02 +7.967794538e-01 +5.275762368e-01 +5.539247394e-02
5900000000.000000 +5.366843714e-01 -2.826634325e-03 -3.361090483e-02 +7.984944635e-01 -2.902496177e-02 +7.975410034e-01 +5.284628451e-01 +4.103645491e-02
5950000000.000000 +5.364894856e-01 -2.160242135e-02 -5.989011213e-03 +7.999275020e-01 -2.017997520e-03 +7.987723598e-01 +5.276226794e-01 +2.748935809e-02
6000000000.000000 +5.337366719e-01 -3.905465032e-02 +2.147802046e-02 +8.013611087e-01 +2.528856205e-02 +8.000307454e-01 +5.236874689e-01 +1.291987957e-02
6050000000.000000 +5.288251700e-01 -5.547307609e-02 +4.882771845e-02 +8.032601722e-01 +5.250191712e-02 +8.015561154e-01 +5.176198818e-01 -1.775335834e-03
6100000000.000000 +5.220707786e-01 -7.110307333e-02 +7.648673473e-02 +8.050570084e-01 +7.977118746e-02 +8.031748546e-01 +5.087867888e-01 -1.650582042e-02
6150000000.000000 +5.129517045e-01 -8.398039120e-02 +1.043715362e-01 +8.067585785e-01 +1.072937437e-01 +8.048354681e-01 +4.982697024e-01 -3.262666070e-02
6200000000.000000 +5.020423171e-01 -9.531354242e-02 +1.320197678e-01 +8.080879578e-01 +1.347892714e-01 +8.061003976e-01 +4.856367785e-01 -4.836504883e-02
6250000000.000000 +4.897807832e-01 -1.047945052e-01 +1.601773879e-01 +8.088762233e-01 +1.625818377e-01 +8.066924778e-01 +4.708140604e-01 -6.514594650e-02
6300000000.000000 +4.763830723e-01 -1.119114880e-01 +1.879890171e-01 +8.089631823e-01 +1.903846191e-01 +8.068306026e-01 +4.550457552e-01 -8.281384932e-02
6350000000.000000 +4.628914243e-01 -1.184460006e-01 +2.159932520e-01 +8.073265295e-01 +2.183311242e-01 +8.054045042e-01 +4.385385108e-01 -9.993434213e-02
6400000000.000000 +4.498820873e-01 -1.233645330e-01 +2.445398886e-01 +8.045065920e-01 +2.465901713e-01 +8.024793901e-01 +4.217762456e-01 -1.181816623e-01
6450000000.000000 +4.374078037e-01 -1.271729441e-01 +2.731468890e-01 +8.001380850e-01 +2.748507617e-01 +7.979783469e-01 +4.050504690e-01 -1.367391239e-01
6500000000.000000 +4.252888446e-01 -1.308215085e-01 +3.017882072e-01 +7.939371940e-01 +3.034000356e-01 +7.916104696e-01 +3.888902863e-01 -1.554492435e-01
6550000000.000000 +4.151592864e-01 -1.356407332e-01 +3.304987316e-01 +7.854249584e-01 +3.319549615e-01 +7.832159396e-01 +3.730959082e-01 -1.726394324e-01
6600000000.000000 +4.052976988e-01 -1.410013339e-01 +3.587101496e-01 +7.753109403e-01 +3.603275871e-01 +7.728561317e-01 +3.578787174e-01 -1.902809247e-01
6650000000.000000 +3.952916484e-01 -1.473463105e-01 +3.867616645e-01 +7.636094112e-01 +3.882945552e-01 +7.613020487e-01 +3.432799709e-01 -2.060846718e-01
6700000000.000000 +3.855386013e-01 -1.543210637e-01 +4.152845832e-01 +7.505706616e-01 +4.161456449e-01 +7.480825583e-01 +3.290154202e-01 -2.201916521e-01
6750000000.000000 +3.758994474e-01 -1.622941659e-01 +4.432269031e-01 +7.359650037e-01 +4.442899443e-01 +7.336156967e-01 +3.149715681e-01 -2.332973145e-01
6800000000.000000 +3.662713017e-01 -1.706320972e-01 +4.710777762e-01 +7.198548774e-01 +4.720358199e-01 +7.176690696e-01 +3.014875055e-01 -2.448679294e-01
6850000000.000000 +3.545172328e-01 -1.799773345e-01 +4.988827790e-01 +7.026342893e-01 +4.995885699e-01 +7.003745530e-01 +2.884325553e-01 -2.547438443e-01
6900000000.000000 +3.425215283e-01 -1.899802666e-01 +5.265263670e-01 +6.840459818e-01 +5.269679667e-01 +6.817596759e-01 +2.751651082e-01 -2.629794414e-01
6950000000.000000 +3.296042452e-01 -1.989352515e-01 +5.536925242e-01 +6.638452141e-01 +5.541941086e-01 +6.619058588e-01 +2.615108285e-01 -2.709147017e-01
7000000000.000000 +3.160175224e-01 -2.075770770e-01 +5.804233320e-01 +6.425283080e-01 +5.810285206e-01 +6.406109491e-01 +2.479773438e-01 -2.771341516e-01
7050000000.000000 +3.017144744e-01 -2.153889081e-01 +6.070646745e-01 +6.198686256e-01 +6.073540469e-01 +6.181303726e-01 +2.333579451e-01 -2.829605221e-01
7100000000.000000 +2.864768945e-01 -2.231670558e-01 +6.329995837e-01 +5.960622811e-01 +6.333994247e-01 +5.943221343e-01 +2.185715424e-01 -2.869600651e-01
7150000000.000000 +2.707619045e-01 -2.295740849e-01 +6.581322226e-01 +5.713904013e-01 +6.583547952e-01 +5.694227623e-01 +2.031502989e-01 -2.891106294e-01
7200000000.000000 +2.546648107e-01 -2.342182504e-01 +6.826274415e-01 +5.452917733e-01 +6.833019493e-01 +5.428010828e-01 +1.873245349e-01 -2.904923799e-01
7250000000.000000 +2.383678889e-01 -2.378449072e-01 +7.064096837e-01 +5.180131770e-01 +7.073117555e-01 +5.153869576e-01 +1.722439763e-01 -2.897534774e-01
7300000000.000000 +2.222470803e-01 -2.399583247e-01 +7.298428726e-01 +4.892713208e-01 +7.308441634e-01 +4.864442390e-01 +1.556563607e-01 -2.885392908e-01
7350000000.000000 +2.059082207e-01 -2.410068643e-01 +7.525003116e-01 +4.592364948e-01 +7.532191344e-01 +4.563052588e-01 +1.403314727e-01 -2.860036123e-01
7400000000.000000 +1.901632504e-01 -2.403568072e-01 +7.738219841e-01 +4.278845901e-01 +7.745132458e-01 +4.246343693e-01 +1.246006120e-01 -2.818159820e-01
7450000000.000000 +1.751164102e-01 -2.385582231e-01 +7.938853373e-01 +3.950984842e-01 +7.944200832e-01 +3.915871682e-01 +1.085362261e-01 -2.773955033e-01
7500000000.000000 +1.600192843e-01 -2.356547002e-01 +8.127262414e-01 +3.609935120e-01 +8.132988000e-01 +3.575634956e-01 +9.366728711e-02 -2.713909975e-01
7550000000.000000 +1.454988242e-01 -2.315464442e-01 +8.297581330e-01 +3.253383603e-01 +8.303522342e-01 +3.222028865e-01 +7.862246681e-02 -2.634187285e-01
7600000000.000000 +1.311470921e-01 -2.256121357e-01 +8.457687385e-01 +2.890348196e-01 +8.457446573e-01 +2.858480162e-01 +6.411752145e-02 -2.548084035e-01
7650000000.000000 +1.174091803e-01 -2.183208842e-01 +8.599822110e-01 +2.516589067e-01 +8.601079145e-01 +2.488214531e-01 +5.102274555e-02 -2.442964953e-01
7700000000.000000 +1.040273210e-01 -2.095308706e-01 +8.726994051e-01 +2.127037694e-01 +8.723453756e-01 +2.104734660e-01 +3.907254681e-02 -2.326019860e-01
7750000000.000000 +9.211800452e-02 -1.996723461e-01 +8.839662835e-01 +1.731743350e-01 +8.837669666e-01 +1.709268248e-01 +2.823369583e-02 -2.192733711e-01
7800000000.000000 +8.132450702e-02 -1.886635605e-01 +8.939088057e-01 +1.326499073e-01 +8.934604658e-01 +1.303243869e-01 +1.903823445e-02 -2.044741960e-01
7850000000.000000 +7.097034506e-02 -1.760954455e-01 +9.020095992e-01 +9.079162335e-02 +9.011472559e-01 +8.861301566e-02 +1.134534560e-02 -1.888510976e-01
7900000000.000000 +6.174817738e-02 -1.620524618e-01 +9.077117084e-01 +4.803682886e-02 +9.070798574e-01 +4.633322307e-02 +5.412480537e-03 -1.719169679e-01
7950000000.000000 +5.329911912e-02 -1.463234281e-01 +9.117400189e-01 +4.427078685e-03 +9.110304862e-01 +3.172355791e-03 +1.351735972e-03 -1.539683557e-01
8000000000.000000 +4.648168375e-02 -1.288074163e-01 +9.137546038e-01 -3.892091896e-02 +9.124550829e-01 -4.061271409e-02 -1.348880369e-03 -1.347862343e-01
8050000000.000000 +4.189340072e-02 -1.099455685e-01 +9.131274944e-01 -8.257706054e-02 +9.122139478e-01 -8.422101717e-02 -2.045164943e-03 -1.146213241e-01
8100000000.000000 +3.846760665e-02 -8.949274498e-02 +9.102672715e-01 -1.264011789e-01 +9.092417243e-01 -1.279297441e-01 -6.092362422e-04 -9.442093842e-02
8150000000.000000 +3.725423989e-02 -6.819819397e-02 +9.050664781e-01 -1.697216900e-01 +9.038953699e-01 -1.708944706e-01 +3.121021156e-03 -7.284685398e-02
8200000000.000000 +3.791997247e-02 -4.600390930e-02 +8.980460782e-01 -2.123138304e-01 +8.966041139e-01 -2.132316357e-01 +9.658994956e-03 -5.152526034e-02
8250000000.000000 +4.036367289e-02 -2.312955857e-02 +8.883418049e-01 -2.532962435e-01 +8.869135847e-01 -2.548744042e-01 +1.865406058e-02 -3.082181685e-02
8300000000.000000 +4.506085383e-02 +1.231380132e-04 +8.758208993e-01 -2.942582451e-01 +8.746030338e-01 -2.954340361e-01 +2.938603208e-02 -9.598779230e-03
8350000000.000000 +5.188618675e-02 +2.361864226e-02 +8.613697395e-01 -3.340769139e-01 +8.604012311e-01 -3.343446452e-01 +4.342750095e-02 +9.774179006e-03
8400000000.000000 +6.048038501e-02 +4.691652568e-02 +8.452696537e-01 -3.721866445e-01 +8.438703936e-01 -3.724686247e-01 +5.883663583e-02 +2.810338632e-02
8450000000.000000 +7.045506037e-02 +6.974892456e-02 +8.269437617e-01 -4.083274101e-01 +8.250377384e-01 -4.090134836e-01 +7.649639823e-02 +4.565737030e-02
8500000000.000000 +8.255813918e-02 +9.173028730e-02 +8.059169782e-01 -4.427406126e-01 +8.042020058e-01 -4.438504788e-01 +9.581449360e-02 +6.091094170e-02
8550000000.000000 +9.588271755e-02 +1.124893045e-01 +7.824197652e-01 -4.761464851e-01 +7.812418981e-01 -4.767954775e-01 +1.156430269e-01 +7.572992652e-02
8600000000.000000 +1.109722335e-01 +1.317344369e-01 +7.578685824e-01 -5.074086349e-01 +7.568009532e-01 -5.078042621e-01 +1.376300723e-01 +8.828482499e-02
8650000000.000000 +1.279846541e-01 +1.502022659e-01 +7.318364900e-01 -5.363995857e-01 +7.303979928e-01 -5.367596917e-01 +1.600373090e-01 +9.947952333e-02
8700000000.000000 +1.460508615e-01 +1.658593135e-01 +7.044005037e-01 -5.633112785e-01 +7.026511199e-01 -5.640077013e-01 +1.833218481e-01 +1.096612716e-01
8750000000.000000 +1.658681858e-01 +1.797990796e-01 +6.754697820e-01 -5.882564232e-01 +6.734224128e-01 -5.891782949e-01 +2.072411592e-01 +1.177929240e-01
8800000000.000000 +1.860666122e-01 +1.908735848e-01 +6.452836592e-01 -6.115479140e-01 +6.433591291e-01 -6.124669578e-01 +2.306361386e-01 +1.244650824e-01
8850000000.000000 +2.078608243e-01 +1.995309306e-01 +6.142792746e-01 -6.329520452e-01 +6.124442250e-01 -6.337572239e-01 +2.542283380e-01 +1.297998087e-01
8900000000.000000 +2.300478437e-01 +2.056008174e-01 +5.826842633e-01 -6.523190360e-01 +5.807396349e-01 -6.527429207e-01 +2.774211257e-01 +1.333037815e-01
8950000000.000000 +2.526749359e-01 +2.084961581e-01 +5.504028120e-01 -6.702113389e-01 +5.487399101e-01 -6.703245696e-01 +2.997932394e-01 +1.354852446e-01
9000000000.000000 +2.753338990e-01 +2.091408366e-01 +5.176487748e-01 -6.861329771e-01 +5.162276133e-01 -6.863991286e-01 +3.213976490e-01 +1.359526074e-01
9050000000.000000 +2.972347018e-01 +2.067224246e-01 +4.847421170e-01 -7.007679210e-01 +4.833374791e-01 -7.008104385e-01 +3.413154256e-01 +1.344506763e-01
9100000000.000000 +3.187264510e-01 +2.021639380e-01 +4.516993830e-01 -7.142368264e-01 +4.507506795e-01 -7.142444247e-01 +3.604985662e-01 +1.315454015e-01
9150000000.000000 +3.382129385e-01 +1.953730058e-01 +4.190715962e-01 -7.267489440e-01 +4.177769496e-01 -7.263628517e-01 +3.777583011e-01 +1.266354025e-01
9200000000.000000 +3.572677365e-01 +1.867517036e-01 +3.867694561e-01 -7.372960611e-01 +3.853438683e-01 -7.371420062e-01 +3.937774695e-01 +1.202573862e-01
9250000000.000000 +3.740145659e-01 +1.772859794e-01 +3.544582638e-01 -7.468843764e-01 +3.533005456e-01 -7.469960836e-01 +4.081136234e-01 +1.122449162e-01
9300000000.000000 +3.887321374e-01 +1.655898488e-01 +3.227132773e-01 -7.560268274e-01 +3.214589934e-01 -7.561681656e-01 +4.210162960e-01 +1.031283000e-01
9350000000.000000 +4.031894737e-01 +1.535435806e-01 +2.914537429e-01 -7.644103173e-01 +2.903782347e-01 -7.641141558e-01 +4.318649577e-01 +9.310607478e-02
9400000000.000000 +4.147907693e-01 +1.407487755e-01 +2.608089264e-01 -7.715458250e-01 +2.594801902e-01 -7.712995942e-01 +4.417565496e-01 +8.259462440e-02
9450000000.000000 +4.258609329e-01 +1.271309363e-01 +2.300707021e-01 -7.777938026e-01 +2.286854292e-01 -7.779776140e-01 +4.499214495e-01 +7.181610335e-02
9500000000.000000 +4.359333550e-01 +1.124242274e-01 +1.998709286e-01 -7.832434006e-01 +1.982154293e-01 -7.832775399e-01 +4.574101428e-01 +6.095458668e-02
9550000000.000000 +4.450161297e-01 +9.578736865e-02 +1.694163374e-01 -7.880489663e-01 +1.676430514e-01 -7.878752102e-01 +4.641409745e-01 +5.131063134e-02
9600000000.000000 +4.536101357e-01 +7.811486826e-02 +1.397938811e-01 -7.916676569e-01 +1.374658558e-01 -7.913724732e-01 +4.691765785e-01 +4.158442310e-02
9650000000.000000 +4.610564657e-01 +5.944951772e-02 +1.094187010e-01 -7.935484834e-01 +1.074675123e-01 -7.939040542e-01 +4.748841361e-01 +3.167821779e-02
9700000000.000000 +4.676033599e-01 +3.975551259e-02 +7.868361878e-02 -7.952550631e-01 +7.700061429e-02 -7.953975164e-01 +4.789155969e-01 +2.285183853e-02
9750000000.000000 +4.735280869e-01 +1.984837730e-02 +4.835193364e-02 -7.964312854e-01 +4.672755481e-02 -7.960127915e-01 +4.816634410e-01 +1.262614334e-02
9800000000.000000 +4.783877479e-01 -7.163070161e-04 +1.828543400e-02 -7.956728852e-01 +1.627009547e-02 -7.954926213e-01 +4.846309852e-01 +2.607719514e-03
9850000000.000000 +4.824990768e-01 -1.961052567e-02 -1.210063331e-02 -7.942517009e-01 -1.392258376e-02 -7.943980899e-01 +4.847188568e-01 -9.586624511e-03
9900000000.000000 +4.847659838e-01 -3.743094411e-02 -4.259870441e-02 -7.921735346e-01 -4.434222936e-02 -7.924829995e-01 +4.846569029e-01 -2.297070348e-02
9950000000.000000 +4.864077321e-01 -5.494201489e-02 -7.258919041e-02 -7.901465918e-01 -7.448180910e-02 -7.894658168e-01 +4.822060417e-01 -3.744604214e-02
10000000000.000000 +4.880664742e-01 -6.983481085e-02 -1.018395232e-01 -7.866019480e-01 -1.044716754e-01 -7.860348240e-01 +4.777570713e-01 -5.450199366e-02
10050000000.000000 +4.880037423e-01 -8.277222834e-02 -1.311767309e-01 -7.822714884e-01 -1.335405761e-01 -7.819353715e-01 +4.720441638e-01 -7.192357386e-02
10100000000.000000 +4.871359204e-01 -9.327556145e-02 -1.611114066e-01 -7.778339964e-01 -1.628135037e-01 -7.775577384e-01 +4.629560234e-01 -9.254663311e-02
10150000000.000000 +4.856042670e-01 -1.002979419e-01 -1.905952866e-01 -7.734429121e-01 -1.918973166e-01 -7.724938271e-01 +4.525053672e-01 -1.139322422e-01
10200000000.000000 +4.837148549e-01 -1.061068318e-01 -2.188662077e-01 -7.682288072e-01 -2.207021625e-01 -7.668735038e-01 +4.390964429e-01 -1.355599544e-01
10250000000.000000 +4.820601924e-01 -1.078368725e-01 -2.473168795e-01 -7.614352270e-01 -2.493257654e-01 -7.604562534e-01 +4.224978774e-01 -1.591733311e-01
10300000000.000000 +4.790316601e-01 -1.082538745e-01 -2.767490849e-01 -7.541482453e-01 -2.781244372e-01 -7.532877512e-01 +4.036495844e-01 -1.821578624e-01
10350000000.000000 +4.762184685e-01 -1.068164079e-01 -3.057284275e-01 -7.469089748e-01 -3.064111607e-01 -7.454136688e-01 +3.823553171e-01 -2.056013090e-01
10400000000.000000 +4.719860034e-01 -1.040057069e-01 -3.334960978e-01 -7.385640685e-01 -3.343944856e-01 -7.362812917e-01 +3.590830684e-01 -2.279255069e-01
10450000000.000000 +4.674102584e-01 -1.003954695e-01 -3.610287430e-01 -7.274208047e-01 -3.625192416e-01 -7.261930859e-01 +3.345894152e-01 -2.484933802e-01
10500000000.000000 +4.612734843e-01 -9.612392336e-02 -3.896924717e-01 -7.155354013e-01 -3.900651681e-01 -7.150173150e-01 +3.098571678e-01 -2.684738160e-01
10550000000.000000 +4.541715950e-01 -9.306120918e-02 -4.182045733e-01 -7.029861297e-01 -4.178345418e-01 -7.022446832e-01 +2.844019121e-01 -2.859292180e-01
10600000000.000000 +4.478082197e-01 -9.086799705e-02 -4.453063411e-01 -6.892837870e-01 -4.451567829e-01 -6.879872210e-01 +2.598499130e-01 -3.017676044e-01
10650000000.000000 +4.404584403e-01 -8.990085810e-02 -4.706127206e-01 -6.733569293e-01 -4.713286793e-01 -6.722243575e-01 +2.364811385e-01 -3.160367268e-01
10700000000.000000 +4.322217204e-01 -9.114911781e-02 -4.970943453e-01 -6.556234057e-01 -4.976093931e-01 -6.553411776e-01 +2.147473542e-01 -3.277938985e-01
10750000000.000000 +4.227281975e-01 -9.521552631e-02 -5.229591885e-01 -6.374315358e-01 -5.229238030e-01 -6.369020430e-01 +1.963333524e-01 -3.396567394e-01
10800000000.000000 +4.128463061e-01 -1.020164784e-01 -5.473329890e-01 -6.187942820e-01 -5.467080915e-01 -6.176233494e-01 +1.804980886e-01 -3.497715787e-01
10850000000.000000 +4.023216232e-01 -1.110989471e-01 -5.702496867e-01 -5.979403134e-01 -5.703530948e-01 -5.971019888e-01 +1.674132293e-01 -3.572574179e-01
10900000000.000000 +3.908366108e-01 -1.219229348e-01 -5.925821404e-01 -5.753227896e-01 -5.928719463e-01 -5.752800993e-01 +1.556713079e-01 -3.647055998e-01
10950000000.000000 +3.780379689e-01 -1.339711001e-01 -6.145479894e-01 -5.522524872e-01 -6.146947430e-01 -5.522068670e-01 +1.448295380e-01 -3.709381516e-01
11000000000.000000 +3.630623606e-01 -1.473331189e-01 -6.359652341e-01 -5.288957895e-01 -6.357158006e-01 -5.282149343e-01 +1.357932660e-01 -3.749841942e-01
11050000000.000000 +3.485577564e-01 -1.596185721e-01 -6.559667922e-01 -5.045907318e-01 -6.563442834e-01 -5.031249431e-01 +1.249142989e-01 -3.780139193e-01
11100000000.000000 +3.319728791e-01 -1.705158591e-01 -6.761813977e-01 -4.777512605e-01 -6.768790791e-01 -4.768501882e-01 +1.136034874e-01 -3.781207715e-01
11150000000.000000 +3.138001969e-01 -1.796316299e-01 -6.978315855e-01 -4.503056829e-01 -6.976984959e-01 -4.498984896e-01 +1.021751108e-01 -3.767361017e-01
11200000000.000000 +2.936598068e-01 -1.855582393e-01 -7.190920002e-01 -4.223789973e-01 -7.187429813e-01 -4.216817761e-01 +8.882059328e-02 -3.722376390e-01
11250000000.000000 +2.716038252e-01 -1.905423690e-01 -7.398666819e-01 -3.935158340e-01 -7.392883598e-01 -3.925364831e-01 +7.699374002e-02 -3.647733825e-01
11300000000.000000 +2.493213919e-01 -1.923611194e-01 -7.595407972e-01 -3.631043831e-01 -7.598983415e-01 -3.622833187e-01 +6.621659580e-02 -3.539770543e-01
11350000000.000000 +2.264343082e-01 -1.907222884e-01 -7.794233542e-01 -3.310442946e-01 -7.796648186e-01 -3.306873254e-01 +5.431948656e-02 -3.404898927e-01
11400000000.000000 +2.020048922e-01 -1.867966083e-01 -7.986257424e-01 -2.986550497e-01 -7.984167108e-01 -2.985435459e-01 +4.643879419e-02 -3.261409655e-01
11450000000.000000 +1.759298647e-01 -1.803336147e-01 -8.165629818e-01 -2.657682824e-01 -8.159632466e-01 -2.651932370e-01 +4.118188281e-02 -3.088314763e-01
11500000000.000000 +1.499847773e-01 -1.735231631e-01 -8.321022515e-01 -2.316193783e-01 -8.318736025e-01 -2.308461901e-01 +3.810313813e-02 -2.898811704e-01
11550000000.000000 +1.249658060e-01 -1.649841857e-01 -8.460129660e-01 -1.958146197e-01 -8.461655958e-01 -1.956359103e-01 +3.816685567e-02 -2.709519758e-01
11600000000.000000 +1.007449459e-01 -1.542314018e-01 -8.582508734e-01 -1.592087742e-01 -8.584842292e-01 -1.595572464e-01 +4.041497196e-02 -2.508705472e-01
11650000000.000000 +7.742349103e-02 -1.422108395e-01 -8.689580117e-01 -1.226515115e-01 -8.686038041e-01 -1.230407146e-01 +4.553053533e-02 -2.304482024e-01
11700000000.000000 +5.473392530e-02 -1.294090766e-01 -8.764702296e-01 -8.544463008e-02 -8.764164746e-01 -8.578383189e-02 +5.279728513e-02 -2.104590899e-01
11750000000.000000 +3.407540871e-02 -1.159494301e-01 -8.814138801e-01 -4.708017203e-02 -8.819448663e-01 -4.720838279e-02 +6.095748375e-02 -1.902535398e-01
11800000000.000000 +1.622157154e-02 -1.014020256e-01 -8.846208210e-01 -7.910859513e-03 -8.847929308e-01 -8.216840061e-03 +6.922955505e-02 -1.696941669e-01
11850000000.000000 +6.974556546e-04 -8.593506910e-02 -8.859481026e-01 +3.133083271e-02 -8.856712910e-01 +3.106066717e-02 +7.802025742e-02 -1.506675314e-01
11900000000.000000 -1.268467182e-02 -6.972217767e-02 -8.842719075e-01 +7.102574264e-02 -8.838724086e-01 +7.112973963e-02 +8.695982594e-02 -1.317774024e-01
11950000000.000000 -2.229327724e-02 -5.382270354e-02 -8.801243574e-01 +1.114021320e-01 -8.797377901e-01 +1.119497579e-01 +9.614584540e-02 -1.132875917e-01
12000000000.000000 -2.767237577e-02 -3.649552324e-02 -8.743593041e-01 +1.523322007e-01 -8.743074952e-01 +1.527704554e-01 +1.044260731e-01 -9.393497989e-02
12050000000.000000 -2.955840862e-02 -1.975003755e-02 -8.663866973e-01 +1.926342101e-01 -8.659610178e-01 +1.929043196e-01 +1.109739906e-01 -7.551289638e-02
12100000000.000000 -2.751739527e-02 -3.179779579e-03 -8.561993635e-01 +2.338022743e-01 -8.556465170e-01 +2.331564984e-01 +1.180150780e-01 -5.648317090e-02
12150000000.000000 -2.109558101e-02 +1.273993493e-02 -8.434589424e-01 +2.744233984e-01 -8.434576320e-01 +2.734182030e-01 +1.246342413e-01 -3.635691646e-02
12200000000.000000 -1.053543693e-02 +2.820137453e-02 -8.290947527e-01 +3.135063614e-01 -8.290119536e-01 +3.128450687e-01 +1.305082713e-01 -1.621354440e-02
12250000000.000000 +3.494776201e-03 +4.287154544e-02 -8.125250272e-01 +3.518616968e-01 -8.127200370e-01 +3.512718401e-01 +1.372115117e-01 +4.488705456e-03
12300000000.000000 +2.188515591e-02 +5.653534108e-02 -7.945129327e-01 +3.886198284e-01 -7.942750702e-01 +3.880923865e-01 +1.439842035e-01 +2.624102797e-02
12350000000.000000 +4.261999541e-02 +6.951263313e-02 -7.741186235e-01 +4.236402173e-01 -7.739319248e-01 +4.234777256e-01 +1.520771513e-01 +4.763171914e-02
12400000000.000000 +6.697011601e-02 +8.084317137e-02 -7.523947198e-01 +4.568066754e-01 -7.518549737e-01 +4.567317684e-01 +1.621763618e-01 +6.989744827e-02
12450000000.000000 +9.395977728e-02 +9.163789966e-02 -7.289168709e-01 +4.876128655e-01 -7.282232900e-01 +4.879673526e-01 +1.726144634e-01 +9.223554224e-02
12500000000.000000 +1.211343530e-01 +1.002536662e-01 -7.037072015e-01 +5.159224461e-01 -7.036086111e-01 +5.160756962e-01 +1.842500807e-01 +1.128133136e-01
12550000000.000000 +1.506537229e-01 +1.079274254e-01 -6.776984114e-01 +5.426701792e-01 -6.771092243e-01 +5.425948379e-01 +1.981981251e-01 +1.323332444e-01
12600000000.000000 +1.802179737e-01 +1.141893851e-01 -6.501382600e-01 +5.674160751e-01 -6.495790795e-01 +5.675584017e-01 +2.133811687e-01 +1.503761886e-01
12650000000.000000 +2.100692683e-01 +1.191002285e-01 -6.218346910e-01 +5.892748394e-01 -6.210819616e-01 +5.894478010e-01 +2.288951864e-01 +1.651678329e-01
12700000000.000000 +2.384977379e-01 +1.242460698e-01 -5.922269299e-01 +6.096575755e-01 -5.915635778e-01 +6.103378804e-01 +2.463014637e-01 +1.765133449e-01
12750000000.000000 +2.658403354e-01 +1.276580818e-01 -5.617013952e-01 +6.287746572e-01 -5.612971257e-01 +6.291601011e-01 +2.640086167e-01 +1.843634269e-01
12800000000.000000 +2.912427718e-01 +1.323702579e-01 -5.310371522e-01 +6.468477506e-01 -5.304518414e-01 +6.466541020e-01 +2.815036239e-01 +1.868353904e-01
12850000000.000000 +3.147924735e-01 +1.355230241e-01 -4.996320467e-01 +6.628622745e-01 -4.987034931e-01 +6.630182095e-01 +2.998314452e-01 +1.855427040e-01
12900000000.000000 +3.377157420e-01 +1.380962260e-01 -4.673609014e-01 +6.783416062e-01 -4.666591668e-01 +6.785420837e-01 +3.166887705e-01 +1.807621140e-01
12950000000.000000 +3.570307586e-01 +1.421226010e-01 -4.351376524e-01 +6.929435409e-01 -4.345550577e-01 +6.931733069e-01 +3.323611186e-01 +1.705192413e-01
13000000000.000000 +3.736372040e-01 +1.444889211e-01 -4.025731334e-01 +7.067800403e-01 -4.020580175e-01 +7.066356687e-01 +3.467644396e-01 +1.572326670e-01
13050000000.000000 +3.886541879e-01 +1.470552102e-01 -3.699515838e-01 +7.195612876e-01 -3.692143911e-01 +7.195879400e-01 +3.597718560e-01 +1.403379903e-01
13100000000.000000 +4.003180405e-01 +1.503676390e-01 -3.368032379e-01 +7.311002729e-01 -3.363977979e-01 +7.313238034e-01 +3.705331521e-01 +1.201098672e-01
13150000000.000000 +4.100611807e-01 +1.528941579e-01 -3.036282913e-01 +7.420023269e-01 -3.033803677e-01 +7.419060471e-01 +3.803178160e-01 +9.839955356e-02
13200000000.000000 +4.181937040e-01 +1.539552619e-01 -2.708594413e-01 +7.514429261e-01 -2.704793132e-01 +7.513094369e-01 +3.879241151e-01 +7.641421264e-02
13250000000.000000 +4.246797942e-01 +1.539911500e-01 -2.376005005e-01 +7.594848401e-01 -2.372256984e-01 +7.593933477e-01 +3.929123529e-01 +5.422523617e-02
13300000000.000000 +4.301829949e-01 +1.522990566e-01 -2.047009749e-01 +7.669621383e-01 -2.044441046e-01 +7.669816122e-01 +3.971124031e-01 +3.170606807e-02
13350000000.000000 +4.353206338e-01 +1.504625267e-01 -1.726645648e-01 +7.721763527e-01 -1.724241510e-01 +7.720953281e-01 +3.999201616e-01 +9.658977131e-03
13400000000.000000 +4.386414826e-01 +1.461327354e-01 -1.402153856e-01 +7.765707718e-01 -1.397866214e-01 +7.763364679e-01 +4.019420767e-01 -1.194674760e-02
13450000000.000000 +4.427700756e-01 +1.399743637e-01 -1.088366771e-01 +7.796182135e-01 -1.078834648e-01 +7.797264004e-01 +4.035743491e-01 -3.197367667e-02
13500000000.000000 +4.469581189e-01 +1.338781535e-01 -7.772575043e-02 +7.809462158e-01 -7.720866053e-02 +7.809565269e-01 +4.044148152e-01 -5.191929234e-02
13550000000.000000 +4.505140943e-01 +1.263673122e-01 -4.669205771e-02 +7.815996000e-01 -4.622432873e-02 +7.814218109e-01 +4.049067940e-01 -7.223897495e-02
13600000000.000000 +4.545956976e-01 +1.192243229e-01 -1.712612785e-02 +7.807222362e-01 -1.656549866e-02 +7.807457395e-01 +4.046331359e-01 -9.172608468e-02
13650000000.000000 +4.574844578e-01 +1.111180448e-01 +1.262192002e-02 +7.792698272e-01 +1.329772954e-02 +7.790376710e-01 +4.033148798e-01 -1.111295681e-01
13700000000.000000 +4.610383880e-01 +1.040099181e-01 +4.168891741e-02 +7.772629089e-01 +4.247272794e-02 +7.767469971e-01 +4.009828799e-01 -1.319823059e-01
13750000000.000000 +4.629061584e-01 +9.760561112e-02 +7.074632305e-02 +7.734719321e-01 +7.143727682e-02 +7.729128477e-01 +3.971976048e-01 -1.523900936e-01
13800000000.000000 +4.642343016e-01 +9.080319349e-02 +9.976061361e-02 +7.693680411e-01 +1.004716387e-01 +7.688155050e-01 +3.913380687e-01 -1.737716320e-01
13850000000.000000 +4.653361632e-01 +8.633499927e-02 +1.276984409e-01 +7.644563229e-01 +1.288915567e-01 +7.639986422e-01 +3.847780534e-01 -1.956118566e-01
13900000000.000000 +4.635667905e-01 +8.035526276e-02 +1.561515779e-01 +7.577872740e-01 +1.574243869e-01 +7.572910485e-01 +3.763214820e-01 -2.156610377e-01
13950000000.000000 +4.613611151e-01 +7.535906218e-02 +1.849590040e-01 +7.507761468e-01 +1.862318360e-01 +7.502556777e-01 +3.651120481e-01 -2.364503319e-01
14000000000.000000 +4.564289165e-01 +6.922999952e-02 +2.130409344e-01 +7.426210066e-01 +2.136736322e-01 +7.423511456e-01 +3.551967695e-01 -2.551254736e-01
