! hatab_megtron7_step30_4p0mm: multiline TRL calibrated (TUGMultilineTRL, scikit-rf 2.1.0)
! raw data ZiadHatab/verification-multiline-trl-calibration @ 021e735, mean of the repeated sweeps
! reference impedance: characteristic impedance of the 94 um 50 Ohm line,
! NOT 50 Ohm; the R value below is a placeholder required by the format
# Hz S RI R 50
1000000000.000000 -1.458018681e-02 -7.717338265e-02 +9.743035565e-01 -1.894282751e-01 +9.747533900e-01 -1.888351802e-01 -1.688277218e-02 -7.968318370e-02
1500000000.000000 -3.143843148e-02 -1.142517739e-01 +9.480120205e-01 -2.789011027e-01 +9.483262587e-01 -2.772985597e-01 -3.624430820e-02 -1.114755561e-01
2000000000.000000 -5.771747985e-02 -1.467483382e-01 +9.113790014e-01 -3.633580439e-01 +9.122960655e-01 -3.606271201e-01 -6.279440204e-02 -1.402408549e-01
2500000000.000000 -8.335272606e-02 -1.682226923e-01 +8.700813557e-01 -4.419970402e-01 +8.693912093e-01 -4.428907671e-01 -9.452698668e-02 -1.668657439e-01
3000000000.000000 -1.114271407e-01 -1.886260818e-01 +8.201179623e-01 -5.144519666e-01 +8.202131914e-01 -5.147055490e-01 -1.290203859e-01 -1.861614716e-01
3500000000.000000 -1.447616319e-01 -2.077469934e-01 +7.638696621e-01 -5.805772949e-01 +7.636570723e-01 -5.811522778e-01 -1.647655050e-01 -1.945209885e-01
4000000000.000000 -1.827801532e-01 -2.183986518e-01 +7.040683325e-01 -6.389982145e-01 +7.034490445e-01 -6.389938285e-01 -2.034951850e-01 -1.972731125e-01
4500000000.000000 -2.169613214e-01 -2.184181353e-01 +6.403957129e-01 -6.901711520e-01 +6.401725627e-01 -6.903846639e-01 -2.424052705e-01 -1.958076864e-01
5000000000.000000 -2.497619173e-01 -2.156635055e-01 +5.745955662e-01 -7.350974673e-01 +5.743987115e-01 -7.353017414e-01 -2.797941837e-01 -1.890834736e-01
5500000000.000000 -2.820564972e-01 -2.114100319e-01 +5.059505413e-01 -7.740779296e-01 +5.063608599e-01 -7.737392809e-01 -3.135332723e-01 -1.734041394e-01
6000000000.000000 -3.164794162e-01 -2.002833686e-01 +4.368585439e-01 -8.064270499e-01 +4.359292153e-01 -8.069619119e-01 -3.426035405e-01 -1.527678296e-01
6500000000.000000 -3.476351163e-01 -1.823218444e-01 +3.674905288e-01 -8.309381941e-01 +3.673076109e-01 -8.308970123e-01 -3.731065546e-01 -1.298682467e-01
7000000000.000000 -3.722675996e-01 -1.592430673e-01 +2.976207285e-01 -8.503605457e-01 +2.963537334e-01 -8.501738945e-01 -3.986654621e-01 -1.019747996e-01
7500000000.000000 -3.954050109e-01 -1.365939152e-01 +2.274290370e-01 -8.648428017e-01 +2.262821584e-01 -8.635704733e-01 -4.179398279e-01 -7.318459559e-02
8000000000.000000 -4.183317539e-01 -1.124056444e-01 +1.576724841e-01 -8.740656023e-01 +1.572096592e-01 -8.740607608e-01 -4.294659994e-01 -4.051523400e-02
8500000000.000000 -4.346470261e-01 -7.948471353e-02 +9.041686260e-02 -8.796757963e-01 +9.002849268e-02 -8.791562305e-01 -4.417282831e-01 -6.843437222e-03
9000000000.000000 -4.430075611e-01 -4.364354291e-02 +2.212673490e-02 -8.811387064e-01 +2.228840105e-02 -8.801339220e-01 -4.518557885e-01 +2.707421681e-02
9500000000.000000 -4.482837944e-01 -1.121830140e-02 -4.408419385e-02 -8.763572088e-01 -4.468686194e-02 -8.762262274e-01 -4.518371638e-01 +6.073648550e-02
10000000000.000000 -4.552358330e-01 +2.131043893e-02 -1.129303476e-01 -8.669631099e-01 -1.125688812e-01 -8.682566734e-01 -4.482180767e-01 +9.244798488e-02
10500000000.000000 -4.566737625e-01 +5.929800538e-02 -1.767447757e-01 -8.547527338e-01 -1.771021106e-01 -8.553156407e-01 -4.433883990e-01 +1.246263420e-01
11000000000.000000 -4.501276699e-01 +9.814175434e-02 -2.403967987e-01 -8.375427923e-01 -2.407128285e-01 -8.376872107e-01 -4.340258943e-01 +1.567073623e-01
11500000000.000000 -4.370056263e-01 +1.323443672e-01 -3.025260368e-01 -8.174437276e-01 -3.028420448e-01 -8.182029468e-01 -4.207548068e-01 +1.884579984e-01
12000000000.000000 -4.245234398e-01 +1.646136034e-01 -3.640428334e-01 -7.930124401e-01 -3.658138626e-01 -7.938583896e-01 -4.069891202e-01 +2.147953813e-01
12500000000.000000 -4.074133709e-01 +1.996713689e-01 -4.251288112e-01 -7.639141612e-01 -4.254097954e-01 -7.640742189e-01 -3.875153163e-01 +2.365318109e-01
13000000000.000000 -3.838458804e-01 +2.325496281e-01 -4.826514056e-01 -7.323882378e-01 -4.837792191e-01 -7.322324583e-01 -3.644082114e-01 +2.618481240e-01
13500000000.000000 -3.550549367e-01 +2.604997579e-01 -5.388229614e-01 -6.942069549e-01 -5.386504117e-01 -6.933605560e-01 -3.411353095e-01 +2.811910421e-01
14000000000.000000 -3.219914522e-01 +2.786845278e-01 -5.944974648e-01 -6.520638118e-01 -5.936024146e-01 -6.503686541e-01 -3.166040067e-01 +2.964641835e-01
14500000000.000000 -2.916457515e-01 +2.995563423e-01 -6.483423721e-01 -6.058613739e-01 -6.474067482e-01 -6.051197215e-01 -2.901664943e-01 +3.081342096e-01
15000000000.000000 -2.601288246e-01 +3.209197691e-01 -6.963622284e-01 -5.567749265e-01 -6.962276331e-01 -5.560115100e-01 -2.635957176e-01 +3.218858461e-01
15500000000.000000 -2.183777281e-01 +3.368869741e-01 -7.429714473e-01 -5.026819851e-01 -7.420688651e-01 -5.009599390e-01 -2.320320119e-01 +3.260573979e-01
16000000000.000000 -1.755991092e-01 +3.354441798e-01 -7.852683621e-01 -4.441049669e-01 -7.846626078e-01 -4.424411938e-01 -2.015196167e-01 +3.270087026e-01
16500000000.000000 -1.445053504e-01 +3.344297490e-01 -8.250688294e-01 -3.813787192e-01 -8.246244781e-01 -3.796027968e-01 -1.738859884e-01 +3.269287040e-01
17000000000.000000 -1.088595979e-01 +3.344976351e-01 -8.596940638e-01 -3.141090448e-01 -8.587769865e-01 -3.133582919e-01 -1.452218835e-01 +3.240318281e-01
17500000000.000000 -6.482026550e-02 +3.282946976e-01 -8.848928617e-01 -2.419911672e-01 -8.844522590e-01 -2.409250055e-01 -1.153892593e-01 +3.146926496e-01
18000000000.000000 -2.795737249e-02 +3.093869363e-01 -9.141027931e-01 -1.687030210e-01 -9.124794563e-01 -1.671086380e-01 -9.013506115e-02 +2.994659922e-01
18500000000.000000 -3.632453814e-03 +2.823057156e-01 -9.325256143e-01 -9.105462588e-02 -9.331585000e-01 -9.126847518e-02 -6.489812241e-02 +2.873385428e-01
19000000000.000000 +2.299494891e-02 +2.633995897e-01 -9.417958147e-01 -1.034956199e-02 -9.415422652e-01 -8.690660582e-03 -4.497513179e-02 +2.648109474e-01
19500000000.000000 +4.875831879e-02 +2.368125717e-01 -9.460590909e-01 +7.225412630e-02 -9.449162231e-01 +7.349635453e-02 -2.471647937e-02 +2.404173527e-01
20000000000.000000 +6.816635603e-02 +1.988160183e-01 -9.412628982e-01 +1.565754110e-01 -9.402276205e-01 +1.572696012e-01 -1.006081160e-02 +2.143518966e-01
20500000000.000000 +7.670050040e-02 +1.592492372e-01 -9.300118337e-01 +2.410681776e-01 -9.285671108e-01 +2.425189357e-01 -2.901809161e-03 +1.862633120e-01
21000000000.000000 +7.339146001e-02 +1.279338717e-01 -9.096478171e-01 +3.231005474e-01 -9.087231678e-01 +3.248656417e-01 +6.062841468e-03 +1.550669772e-01
21500000000.000000 +7.358462226e-02 +9.838915544e-02 -8.775042171e-01 +4.078736943e-01 -8.762791449e-01 +4.075605063e-01 +7.089773043e-03 +1.248220646e-01
22000000000.000000 +6.657044341e-02 +5.925696718e-02 -8.404529867e-01 +4.863525398e-01 -8.398700787e-01 +4.875595438e-01 +2.289776325e-03 +9.391664183e-02
22500000000.000000 +5.002654606e-02 +2.946163949e-02 -7.927905129e-01 +5.613313649e-01 -7.920540574e-01 +5.623209934e-01 -4.218797116e-03 +5.920072274e-02
23000000000.000000 +2.062092879e-02 +5.770549036e-03 -7.388898648e-01 +6.339569407e-01 -7.388214174e-01 +6.347917447e-01 -1.727367499e-02 +3.465174780e-02
23500000000.000000 -4.537331216e-03 -1.305344813e-02 -6.763363298e-01 +6.992064963e-01 -6.755601327e-01 +6.998377409e-01 -3.408717748e-02 +9.856653489e-03
24000000000.000000 -3.028746044e-02 -3.278095804e-02 -6.080357620e-01 +7.544502832e-01 -6.066224928e-01 +7.559092875e-01 -5.635818149e-02 -1.450865197e-02
24500000000.000000 -6.541700524e-02 -4.999565031e-02 -5.365285225e-01 +8.069835535e-01 -5.346232791e-01 +8.073117112e-01 -8.139961115e-02 -3.083060772e-02
25000000000.000000 -1.018160967e-01 -5.170779543e-02 -4.581347382e-01 +8.513756831e-01 -4.569543079e-01 +8.508814505e-01 -1.108714676e-01 -3.959788301e-02
25500000000.000000 -1.354317694e-01 -4.650428648e-02 -3.773859392e-01 +8.845596200e-01 -3.764926094e-01 +8.839814020e-01 -1.374057938e-01 -4.716806699e-02
26000000000.000000 -1.654792966e-01 -3.789522157e-02 -2.967372559e-01 +9.084830689e-01 -2.955566626e-01 +9.078254102e-01 -1.684551780e-01 -4.893421373e-02
26500000000.000000 -1.965392135e-01 -3.208842029e-02 -2.133055094e-01 +9.236107408e-01 -2.120724816e-01 +9.240710611e-01 -2.043168313e-01 -4.231987545e-02
27000000000.000000 -2.285489601e-01 -1.691215818e-02 -1.283557854e-01 +9.343755246e-01 -1.265469898e-01 +9.342391894e-01 -2.333495457e-01 -3.008269839e-02
27500000000.000000 -2.599329964e-01 +9.520219352e-03 -4.614725478e-02 +9.349472599e-01 -4.420439843e-02 +9.339613607e-01 -2.553763229e-01 -1.334738114e-02
28000000000.000000 -2.835016225e-01 +3.733853631e-02 +3.361956641e-02 +9.264556224e-01 +3.589530483e-02 +9.258687724e-01 -2.833330414e-01 +7.342696854e-03
28500000000.000000 -2.959304608e-01 +5.835664845e-02 +1.093799696e-01 +9.137803362e-01 +1.108262195e-01 +9.128477326e-01 -3.086780897e-01 +3.018053925e-02
29000000000.000000 -3.112713845e-01 +8.591251952e-02 +1.872324301e-01 +8.948514131e-01 +1.882117181e-01 +8.945727372e-01 -3.246698098e-01 +5.998600205e-02
29500000000.000000 -3.263638553e-01 +1.192733465e-01 +2.576754803e-01 +8.681863614e-01 +2.587559708e-01 +8.670323126e-01 -3.349856543e-01 +9.408791055e-02
30000000000.000000 -3.255725803e-01 +1.609600175e-01 +3.239449405e-01 +8.361771476e-01 +3.252663263e-01 +8.351296775e-01 -3.412564302e-01 +1.270695892e-01
30500000000.000000 -3.279064281e-01 +1.903697072e-01 +4.089587289e-01 +7.969400237e-01 +3.915916211e-01 +8.037164208e-01 -3.483512559e-01 +1.602356264e-01
31000000000.000000 -3.253453844e-01 +2.225541933e-01 +4.665864840e-01 +7.560803681e-01 +4.511012376e-01 +7.641453675e-01 -3.455143462e-01 +1.956009181e-01
31500000000.000000 -3.196187301e-01 +2.533805075e-01 +5.217997659e-01 +7.129358213e-01 +5.072865604e-01 +7.221923306e-01 -3.379750288e-01 +2.291549004e-01
32000000000.000000 -3.066287000e-01 +2.829364741e-01 +5.723812779e-01 +6.669815182e-01 +5.587273506e-01 +6.770133248e-01 -3.270763761e-01 +2.620620250e-01
32500000000.000000 -2.916636424e-01 +3.094870542e-01 +6.206728554e-01 +6.171196211e-01 +6.071547189e-01 +6.279369739e-01 -3.107995204e-01 +2.933484394e-01
33000000000.000000 -2.740799383e-01 +3.355245522e-01 +6.637742752e-01 +5.654669956e-01 +6.512658593e-01 +5.770183995e-01 -2.903677422e-01 +3.221626008e-01
33500000000.000000 -2.520943821e-01 +3.575438373e-01 +7.034473764e-01 +5.097500752e-01 +6.901594858e-01 +5.254016738e-01 -2.669054363e-01 +3.484809424e-01
34000000000.000000 -2.311181596e-01 +3.780875543e-01 +7.384839647e-01 +4.527249063e-01 +7.275807520e-01 +4.683493099e-01 -2.399830577e-01 +3.733506308e-01
34500000000.000000 -2.037595969e-01 +3.941407602e-01 +7.697240067e-01 +3.956458186e-01 +7.598476701e-01 +4.113066088e-01 -2.109771779e-01 +3.927016779e-01
35000000000.000000 -1.782673084e-01 +4.080809114e-01 +7.964448709e-01 +3.344762912e-01 +7.877321936e-01 +3.529412946e-01 -1.781897000e-01 +4.090869401e-01
35500000000.000000 -1.466752372e-01 +4.190006458e-01 +8.206277894e-01 +2.730397909e-01 +8.122484113e-01 +2.932707269e-01 -1.461722528e-01 +4.202901676e-01
36000000000.000000 -1.156486599e-01 +4.236713143e-01 +8.403721921e-01 +2.104164079e-01 +8.333154089e-01 +2.296444110e-01 -1.124819693e-01 +4.271286765e-01
36500000000.000000 -8.394728569e-02 +4.280044167e-01 +8.555046426e-01 +1.461173627e-01 +8.502585432e-01 +1.654880242e-01 -7.913887750e-02 +4.297493851e-01
37000000000.000000 -5.226379715e-02 +4.249136588e-01 +8.666828728e-01 +8.034415430e-02 +8.635949579e-01 +1.005237207e-01 -4.482752548e-02 +4.292192173e-01
37500000000.000000 -2.154897872e-02 +4.209889742e-01 +8.735507305e-01 +1.211952966e-02 +8.718797286e-01 +3.426391670e-02 -1.079161793e-02 +4.234926383e-01
38000000000.000000 +1.160354583e-02 +4.123008943e-01 +8.758100453e-01 -5.696425998e-02 +8.755599736e-01 -3.412101426e-02 +2.131634957e-02 +4.136305942e-01
38500000000.000000 +4.093571746e-02 +3.984158149e-01 +8.732531586e-01 -1.249863624e-01 +8.748398346e-01 -1.048948120e-01 +5.073956670e-02 +3.995142623e-01
39000000000.000000 +6.910279662e-02 +3.819553783e-01 +8.669697150e-01 -1.926603221e-01 +8.692453134e-01 -1.763759374e-01 +7.924399863e-02 +3.812828125e-01
39500000000.000000 +9.425670786e-02 +3.590941176e-01 +8.521082634e-01 -2.677347763e-01 +8.570148321e-01 -2.452600767e-01 +1.046335971e-01 +3.590264146e-01
40000000000.000000 +1.168746063e-01 +3.341719565e-01 +8.328245064e-01 -3.397887705e-01 +8.414277701e-01 -3.144033767e-01 +1.268345278e-01 +3.342803059e-01
40500000000.000000 +1.353069133e-01 +3.072749730e-01 +8.088049318e-01 -4.080155252e-01 +8.168429821e-01 -3.884720510e-01 +1.451240713e-01 +3.057805185e-01
41000000000.000000 +1.499429699e-01 +2.769723752e-01 +7.779146868e-01 -4.769481028e-01 +7.871477394e-01 -4.592558711e-01 +1.582749546e-01 +2.758532127e-01
41500000000.000000 +1.604364759e-01 +2.449409748e-01 +7.385512628e-01 -5.466326813e-01 +7.499923119e-01 -5.267266096e-01 +1.666918332e-01 +2.443266086e-01
42000000000.000000 +1.657867791e-01 +2.116616615e-01 +6.963016944e-01 -6.101985625e-01 +7.075807806e-01 -5.936183202e-01 +1.686958962e-01 +2.123584766e-01
42500000000.000000 +1.633364829e-01 +1.757629120e-01 +6.441658495e-01 -6.744773469e-01 +6.570337059e-01 -6.588349737e-01 +1.674353092e-01 +1.797957958e-01
43000000000.000000 +1.592519559e-01 +1.427966880e-01 +5.843988024e-01 -7.331259389e-01 +6.025603460e-01 -7.176027137e-01 +1.596822520e-01 +1.492328365e-01
43500000000.000000 +1.490412160e-01 +1.100984605e-01 +5.215458880e-01 -7.873825496e-01 +5.379336099e-01 -7.734580338e-01 +1.457819064e-01 +1.207245197e-01
44000000000.000000 +1.311601746e-01 +8.032362784e-02 +4.489852653e-01 -8.356946777e-01 +4.694529238e-01 -8.223671811e-01 +1.284576129e-01 +9.462676225e-02
44500000000.000000 +1.109590183e-01 +5.229159867e-02 +3.710094628e-01 -8.762909712e-01 +3.935679072e-01 -8.657188038e-01 +1.057906433e-01 +7.326011852e-02
45000000000.000000 +8.445995504e-02 +3.050437773e-02 +2.918417107e-01 -9.092124797e-01 +3.154004870e-01 -8.994780247e-01 +7.936106774e-02 +5.525813536e-02
45500000000.000000 +5.521902589e-02 +1.311093255e-02 +2.059748851e-01 -9.337864216e-01 +2.324429716e-01 -9.265244214e-01 +5.097524932e-02 +4.228707081e-02
46000000000.000000 +2.448692648e-02 +1.817602400e-03 +1.188322642e-01 -9.511621386e-01 +1.468336291e-01 -9.433751822e-01 +2.055548337e-02 +3.541845416e-02
46500000000.000000 -8.390530672e-03 -2.955377371e-03 +3.183594805e-02 -9.570969173e-01 +5.797099203e-02 -9.545871121e-01 -9.847375351e-03 +3.354247523e-02
47000000000.000000 -4.127544131e-02 -1.597411176e-03 -5.880239618e-02 -9.546210567e-01 -2.954498122e-02 -9.547334859e-01 -3.945109837e-02 +3.779873008e-02
47500000000.000000 -7.360186695e-02 +4.788016072e-03 -1.463048566e-01 -9.424933357e-01 -1.174351118e-01 -9.458283163e-01 -6.944911315e-02 +4.643779472e-02
48000000000.000000 -1.051383910e-01 +1.803843522e-02 -2.307517335e-01 -9.218263368e-01 -2.031894589e-01 -9.264762440e-01 -9.743530003e-02 +6.084212039e-02
48500000000.000000 -1.320985787e-01 +3.911932204e-02 -3.134081649e-01 -8.924400330e-01 -2.848443723e-01 -9.009095756e-01 -1.228305731e-01 +7.943960354e-02
49000000000.000000 -1.566458536e-01 +6.310709896e-02 -3.903384507e-01 -8.578310448e-01 -3.642694787e-01 -8.663395668e-01 -1.441272159e-01 +1.026526052e-01
49500000000.000000 -1.753236462e-01 +9.429120726e-02 -4.644632815e-01 -8.133177144e-01 -4.354945702e-01 -8.261711767e-01 -1.614094033e-01 +1.258122506e-01
50000000000.000000 -1.875357884e-01 +1.261695942e-01 -5.321418302e-01 -7.620726938e-01 -5.057168756e-01 -7.769609135e-01 -1.738118030e-01 +1.531515561e-01
50500000000.000000 -1.963282471e-01 +1.600368116e-01 -5.918311807e-01 -7.067626306e-01 -5.688809970e-01 -7.232518651e-01 -1.817146403e-01 +1.821537607e-01
51000000000.000000 -1.966825314e-01 +1.951528298e-01 -6.456113042e-01 -6.478567373e-01 -6.250006099e-01 -6.663310554e-01 -1.855190201e-01 +2.134092892e-01
51500000000.000000 -1.934942308e-01 +2.301291226e-01 -6.940371263e-01 -5.849188166e-01 -6.749759547e-01 -6.029857965e-01 -1.832331223e-01 +2.439354050e-01
52000000000.000000 -1.827648503e-01 +2.682920837e-01 -7.356779856e-01 -5.181970969e-01 -7.191523372e-01 -5.378243114e-01 -1.793802781e-01 +2.741830531e-01
52500000000.000000 -1.665364529e-01 +2.999099336e-01 -7.718605553e-01 -4.468734642e-01 -7.531266222e-01 -4.746137716e-01 -1.689477877e-01 +3.042633546e-01
53000000000.000000 -1.493468722e-01 +3.311222432e-01 -7.980059094e-01 -3.815976406e-01 -7.846832851e-01 -4.059666311e-01 -1.550749153e-01 +3.303542740e-01
53500000000.000000 -1.244886378e-01 +3.583071459e-01 -8.201521274e-01 -3.131071621e-01 -8.092630186e-01 -3.372090506e-01 -1.384995683e-01 +3.571102928e-01
54000000000.000000 -9.814404625e-02 +3.808105014e-01 -8.370491544e-01 -2.435582216e-01 -8.270634659e-01 -2.694595456e-01 -1.162548444e-01 +3.789844933e-01
54500000000.000000 -6.513840816e-02 +4.040365443e-01 -8.486848598e-01 -1.703311075e-01 -8.411130393e-01 -2.011389861e-01 -9.188099459e-02 +4.001667047e-01
55000000000.000000 -3.124269087e-02 +4.176767748e-01 -8.546838703e-01 -9.636175728e-02 -8.490066000e-01 -1.322180904e-01 -6.337478363e-02 +4.183385296e-01
55500000000.000000 -2.810292311e-03 +4.287110464e-01 -8.547233915e-01 -3.764194854e-02 -8.519018686e-01 -6.561549710e-02 -3.374841684e-02 +4.309121572e-01
56000000000.000000 +3.419425985e-02 +4.368227153e-01 -8.515042348e-01 +3.252794577e-02 -8.505490471e-01 +1.633986335e-04 -2.924476631e-03 +4.398644216e-01
56500000000.000000 +6.607967694e-02 +4.384720450e-01 -8.422301099e-01 +9.668569156e-02 -8.452418997e-01 +6.588150874e-02 +3.103771952e-02 +4.446416019e-01
57000000000.000000 +9.993348414e-02 +4.383972813e-01 -8.304358169e-01 +1.591055379e-01 -8.333020759e-01 +1.317051163e-01 +6.366770080e-02 +4.451209182e-01
57500000000.000000 +1.324208381e-01 +4.299794005e-01 -8.167877074e-01 +2.150377623e-01 -8.207110984e-01 +1.927933787e-01 +9.438251422e-02 +4.436182635e-01
58000000000.000000 +1.647505014e-01 +4.233014066e-01 -7.944974849e-01 +2.847429536e-01 -8.029984523e-01 +2.574840862e-01 +1.298446982e-01 +4.354068736e-01
58500000000.000000 +1.981569037e-01 +4.142253146e-01 -7.707256973e-01 +3.411090044e-01 -7.800346813e-01 +3.178946965e-01 +1.600721662e-01 +4.256944050e-01
59000000000.000000 +2.234102867e-01 +3.965800435e-01 -7.443978979e-01 +3.999101135e-01 -7.554607037e-01 +3.754713769e-01 +1.896762576e-01 +4.123880880e-01
59500000000.000000 +2.506445518e-01 +3.750985503e-01 -7.126058198e-01 +4.556773809e-01 -7.242346326e-01 +4.334102535e-01 +2.189645075e-01 +3.939042768e-01
60000000000.000000 +2.721742766e-01 +3.489538521e-01 -6.767076248e-01 +5.081038413e-01 -6.893032195e-01 +4.879160711e-01 +2.439796081e-01 +3.762486199e-01
60500000000.000000 +2.947156280e-01 +3.252619214e-01 -6.387183266e-01 +5.592607632e-01 -6.531604181e-01 +5.395736542e-01 +2.673108512e-01 +3.493179787e-01
61000000000.000000 +3.138987333e-01 +2.968436477e-01 -5.884677003e-01 +6.160255798e-01 -6.110980538e-01 +5.909650966e-01 +2.902296890e-01 +3.203662785e-01
61500000000.000000 +3.277927296e-01 +2.661639435e-01 -5.442832597e-01 +6.598878665e-01 -5.670663781e-01 +6.390016840e-01 +3.049612231e-01 +2.919205519e-01
62000000000.000000 +3.337997025e-01 +2.382087851e-01 -4.928608599e-01 +7.059798727e-01 -5.155560512e-01 +6.878203219e-01 +3.183821326e-01 +2.560938811e-01
62500000000.000000 +3.432330118e-01 +2.043123418e-01 -4.347013838e-01 +7.495950577e-01 -4.630732889e-01 +7.289943688e-01 +3.255357246e-01 +2.248829905e-01
63000000000.000000 +3.388284099e-01 +1.720932736e-01 -3.705513375e-01 +7.880963505e-01 -4.057014508e-01 +7.701708775e-01 +3.307174502e-01 +1.898473230e-01
63500000000.000000 +3.372225895e-01 +1.411598709e-01 -3.095319933e-01 +8.223665744e-01 -3.449179965e-01 +8.085838406e-01 +3.273702480e-01 +1.536906290e-01
64000000000.000000 +3.282428001e-01 +1.130028038e-01 -2.462769762e-01 +8.482649425e-01 -2.778678052e-01 +8.378577820e-01 +3.220858586e-01 +1.202225439e-01
64500000000.000000 +3.132319061e-01 +8.138411838e-02 -1.627633640e-01 +8.757045615e-01 -2.084369219e-01 +8.656770794e-01 +3.100038151e-01 +8.115354395e-02
65000000000.000000 +2.972929645e-01 +5.456735204e-02 -1.050695456e-01 +8.913336247e-01 -1.337507063e-01 +8.873215608e-01 +2.904911405e-01 +5.715325769e-02
65500000000.000000 +2.766362828e-01 +3.012478694e-02 -2.110357909e-02 +9.059493603e-01 -5.931879319e-02 +9.013214832e-01 +2.696373091e-01 +2.832452197e-02
66000000000.000000 +2.501273107e-01 +1.405325561e-02 +5.734193673e-02 +9.113801248e-01 +2.202272778e-02 +9.091160939e-01 +2.433539032e-01 +2.672987066e-03
66500000000.000000 +2.226707323e-01 -4.529943182e-03 +1.382819920e-01 +9.082114083e-01 +1.015909516e-01 +9.109126596e-01 +2.151057053e-01 -1.487063261e-02
67000000000.000000 +1.862031919e-01 -1.851959337e-02 +2.258651724e-01 +8.964263751e-01 +1.838971248e-01 +9.046854221e-01 +1.830208645e-01 -2.567134575e-02
67500000000.000000 +1.576592269e-01 -1.930172502e-02 +2.990257895e-01 +8.812179158e-01 +2.661290801e-01 +8.894523444e-01 +1.482833452e-01 -3.626497808e-02
68000000000.000000 +1.238977161e-01 -2.246462358e-02 +3.873890560e-01 +8.493454224e-01 +3.462050554e-01 +8.666067196e-01 +1.145902392e-01 -3.632102018e-02
68500000000.000000 +9.209004484e-02 -1.320482283e-02 +4.552143454e-01 +8.196637701e-01 +4.267621034e-01 +8.333226528e-01 +8.091689994e-02 -3.038028903e-02
69000000000.000000 +6.324013822e-02 -2.137983908e-03 +5.422393488e-01 +7.665652150e-01 +5.035689849e-01 +7.904410700e-01 +4.814027442e-02 -1.845636722e-02
69500000000.000000 +3.284047788e-02 +1.771903309e-02 +6.099793842e-01 +7.134787351e-01 +5.746091255e-01 +7.398540690e-01 +1.890103103e-02 +9.052612171e-05
70000000000.000000 +9.420119250e-03 +4.025812423e-02 +6.660039484e-01 +6.615844438e-01 +6.369242471e-01 +6.832204486e-01 -6.677209589e-03 +2.290902967e-02
70500000000.000000 -9.126412381e-03 +6.505640328e-02 +7.243483446e-01 +5.930303691e-01 +6.989518564e-01 +6.222176381e-01 -2.658006466e-02 +4.944344870e-02
71000000000.000000 -2.308326974e-02 +9.108294362e-02 +7.759392675e-01 +5.176612394e-01 +7.526020221e-01 +5.521728164e-01 -4.101775500e-02 +7.920887147e-02
71500000000.000000 -3.281818673e-02 +1.255802535e-01 +8.188595833e-01 +4.409630836e-01 +7.952046819e-01 +4.787882365e-01 -5.002872948e-02 +1.121134549e-01
72000000000.000000 -3.279351677e-02 +1.587837906e-01 +8.486541162e-01 +3.674415777e-01 +8.296072132e-01 +4.015282448e-01 -5.573874883e-02 +1.451289996e-01
72500000000.000000 -2.631075195e-02 +1.915174329e-01 +8.772614016e-01 +2.748199714e-01 +8.593649782e-01 +3.224551141e-01 -5.183421646e-02 +1.776483400e-01
73000000000.000000 -1.998532125e-02 +2.248458391e-01 +8.885347568e-01 +2.002773915e-01 +8.793351975e-01 +2.410508012e-01 -4.321574378e-02 +2.130208753e-01
73500000000.000000 -7.953747824e-03 +2.509645781e-01 +8.951398845e-01 +1.234713616e-01 +8.895798558e-01 +1.620670455e-01 -2.933341244e-02 +2.429867470e-01
74000000000.000000 +1.283829612e-02 +2.762322361e-01 +8.971032540e-01 +3.342502500e-02 +8.912404401e-01 +8.130825858e-02 -8.372994686e-03 +2.695234530e-01
74500000000.000000 +3.920943741e-02 +2.993894664e-01 +8.884930060e-01 -4.062820860e-02 +8.874790589e-01 +1.681257290e-03 +1.324232088e-02 +2.958796484e-01
75000000000.000000 +6.054376960e-02 +3.205109992e-01 +8.744732230e-01 -1.052329117e-01 +8.767280301e-01 -7.218933400e-02 +4.182322267e-02 +3.183792782e-01
75500000000.000000 +9.636528679e-02 +3.350451614e-01 +8.531761802e-01 -1.849855787e-01 +8.612896592e-01 -1.436571286e-01 +6.873869972e-02 +3.366283935e-01
76000000000.000000 +1.230420938e-01 +3.453110268e-01 +8.292060694e-01 -2.447429716e-01 +8.389672324e-01 -2.152260086e-01 +1.018919501e-01 +3.506645213e-01
76500000000.000000 +1.587214114e-01 +3.493503305e-01 +7.984973351e-01 -3.230766309e-01 +8.114234727e-01 -2.829729178e-01 +1.357750815e-01 +3.552156700e-01
77000000000.000000 +1.960229871e-01 +3.470254739e-01 +7.630391185e-01 -3.808710157e-01 +7.829999803e-01 -3.444749207e-01 +1.683491102e-01 +3.598845349e-01
77500000000.000000 +2.294567506e-01 +3.426291727e-01 +7.202247530e-01 -4.451567639e-01 +7.445938491e-01 -4.046506817e-01 +2.043967002e-01 +3.568659072e-01
78000000000.000000 +2.608913820e-01 +3.329641687e-01 +6.792465579e-01 -4.944059660e-01 +7.048461224e-01 -4.586909011e-01 +2.409507974e-01 +3.502925319e-01
78500000000.000000 +2.946162599e-01 +3.197422905e-01 +6.336019858e-01 -5.453619100e-01 +6.571500654e-01 -5.089778044e-01 +2.729821651e-01 +3.409442208e-01
79000000000.000000 +3.313639897e-01 +2.961774838e-01 +5.776344015e-01 -5.983315697e-01 +6.133566461e-01 -5.582773427e-01 +3.018030957e-01 +3.261016188e-01
79500000000.000000 +3.479199610e-01 +2.828957878e-01 +5.414488319e-01 -6.266029877e-01 +5.668412753e-01 -6.028687501e-01 +3.316572218e-01 +3.063324468e-01
80000000000.000000 +3.788470896e-01 +2.571899903e-01 +4.817538693e-01 -6.694536722e-01 +5.176663112e-01 -6.415876631e-01 +3.556237314e-01 +2.879159515e-01
80500000000.000000 +4.001791349e-01 +2.390719737e-01 +4.438037888e-01 -6.908269029e-01 +4.659192432e-01 -6.756232927e-01 +3.807148385e-01 +2.629918186e-01
81000000000.000000 +4.174788045e-01 +2.028540717e-01 +3.756948795e-01 -7.295517502e-01 +4.113812647e-01 -7.081205693e-01 +3.993067957e-01 +2.336765412e-01
81500000000.000000 +4.317832331e-01 +1.739379026e-01 +3.135179104e-01 -7.552774232e-01 +3.518906817e-01 -7.381715129e-01 +4.202270356e-01 +2.005262232e-01
82000000000.000000 +4.472748680e-01 +1.381705162e-01 +2.426559065e-01 -7.819442168e-01 +2.906284855e-01 -7.611923501e-01 +4.317865829e-01 +1.700103916e-01
82500000000.000000 +4.517133667e-01 +1.083929701e-01 +1.915768718e-01 -7.948713040e-01 +2.348470366e-01 -7.846084129e-01 +4.415632837e-01 +1.349379825e-01
83000000000.000000 +4.552562862e-01 +7.413514642e-02 +1.356631674e-01 -8.104252097e-01 +1.748196110e-01 -8.015065792e-01 +4.453893774e-01 +1.099812036e-01
83500000000.000000 +4.536551945e-01 +3.356298484e-02 +5.694930496e-02 -8.224635633e-01 +1.142413511e-01 -8.155961219e-01 +4.469915117e-01 +7.226476336e-02
84000000000.000000 +4.475126867e-01 +1.476656911e-03 +1.160149629e-02 -8.284581850e-01 +4.967377134e-02 -8.242834395e-01 +4.435841626e-01 +4.073832747e-02
84500000000.000000 +4.385756230e-01 -3.059034507e-02 -5.734915214e-02 -8.305664811e-01 -1.783662749e-02 -8.309185517e-01 +4.375455391e-01 +6.912624371e-03
85000000000.000000 +4.256006127e-01 -5.960530552e-02 -1.246154108e-01 -8.272453969e-01 -8.468971477e-02 -8.327794843e-01 +4.267145843e-01 -2.664670131e-02
85500000000.000000 +4.072524990e-01 -9.203170080e-02 -1.978382594e-01 -8.191409743e-01 -1.500856557e-01 -8.283995350e-01 +4.132654738e-01 -5.273071853e-02
86000000000.000000 +3.878456037e-01 -1.116455879e-01 -2.574525269e-01 -8.092770324e-01 -2.170280105e-01 -8.176480544e-01 +3.909593846e-01 -8.282704758e-02
86500000000.000000 +3.608773351e-01 -1.365806218e-01 -3.360852122e-01 -7.865335586e-01 -2.855928051e-01 -8.012691669e-01 +3.675916144e-01 -1.100816874e-01
87000000000.000000 +3.374403382e-01 -1.529697158e-01 -3.949652388e-01 -7.675651828e-01 -3.553157794e-01 -7.795481019e-01 +3.397622495e-01 -1.334503509e-01
87500000000.000000 +3.032817467e-01 -1.686920879e-01 -4.730919289e-01 -7.307957323e-01 -4.256571678e-01 -7.578951191e-01 +3.097815034e-01 -1.500096064e-01
88000000000.000000 +2.771268739e-01 -1.757398817e-01 -5.232358284e-01 -7.031963821e-01 -4.923997576e-01 -7.253462302e-01 +2.753287764e-01 -1.639204273e-01
88500000000.000000 +2.416508483e-01 -1.766630789e-01 -5.955510641e-01 -6.541679804e-01 -5.543999944e-01 -6.898721818e-01 +2.404094008e-01 -1.757684600e-01
89000000000.000000 +2.155789260e-01 -1.800327877e-01 -6.562806407e-01 -6.030938877e-01 -6.171449662e-01 -6.404169621e-01 +2.049636220e-01 -1.757554543e-01
89500000000.000000 +1.836196794e-01 -1.687609358e-01 -7.104160835e-01 -5.487259501e-01 -6.755540145e-01 -5.850639595e-01 +1.684424236e-01 -1.745761518e-01
90000000000.000000 +1.540711974e-01 -1.541473243e-01 -7.597843683e-01 -4.936242049e-01 -7.317447512e-01 -5.262621854e-01 +1.339600134e-01 -1.648163525e-01
90500000000.000000 +1.345696749e-01 -1.316981889e-01 -7.985951221e-01 -4.373693900e-01 -7.829093123e-01 -4.627447308e-01 +9.731258247e-02 -1.467543658e-01
91000000000.000000 +1.054479306e-01 -1.134529505e-01 -8.457449135e-01 -3.478062037e-01 -8.251655424e-01 -3.907177584e-01 +6.751519182e-02 -1.282764773e-01
91500000000.000000 +9.129412238e-02 -9.018945064e-02 -8.759739189e-01 -2.657775840e-01 -8.606519301e-01 -3.154999192e-01 +4.073121062e-02 -1.022004881e-01
92000000000.000000 +7.568391191e-02 -5.801160091e-02 -8.999466165e-01 -1.790062848e-01 -8.876463171e-01 -2.368812915e-01 +2.332918743e-02 -6.863874225e-02
92500000000.000000 +6.827880211e-02 -3.060665503e-02 -9.145222283e-01 -1.038103581e-01 -9.071190662e-01 -1.491687908e-01 +7.648877113e-03 -3.209495897e-02
93000000000.000000 +5.970036871e-02 +3.039476274e-03 -9.203638826e-01 -1.401303582e-02 -9.210040645e-01 -6.699509721e-02 +4.746303908e-04 +2.454856911e-03
93500000000.000000 +7.056175432e-02 +3.589583016e-02 -9.202956410e-01 +6.738437537e-02 -9.220203816e-01 +1.793281058e-02 +1.528310005e-03 +3.936253649e-02
94000000000.000000 +8.005344446e-02 +6.428314689e-02 -9.041618512e-01 +1.567009674e-01 -9.130528116e-01 +9.934534059e-02 +7.020180508e-03 +7.454858209e-02
94500000000.000000 +9.601865307e-02 +9.100579798e-02 -8.814310178e-01 +2.393354513e-01 -8.931217441e-01 +1.850808528e-01 +2.621566011e-02 +1.088449272e-01
95000000000.000000 +1.156719118e-01 +1.184713366e-01 -8.532952156e-01 +3.124342750e-01 -8.680841539e-01 +2.628157614e-01 +4.441018944e-02 +1.445152540e-01
95500000000.000000 +1.459536609e-01 +1.382773063e-01 -8.156888631e-01 +3.896902738e-01 -8.301138426e-01 +3.460012313e-01 +6.879353063e-02 +1.719722166e-01
96000000000.000000 +1.660907773e-01 +1.551590994e-01 -7.643747561e-01 +4.655725400e-01 -7.911733778e-01 +4.137793963e-01 +1.035332916e-01 +1.885932302e-01
96500000000.000000 +1.983347664e-01 +1.650373674e-01 -7.099980366e-01 +5.334678441e-01 -7.491995549e-01 +4.772183976e-01 +1.364765876e-01 +2.085904660e-01
97000000000.000000 +2.302260565e-01 +1.823091191e-01 -6.657394779e-01 +5.725394475e-01 -6.975900421e-01 +5.364009142e-01 +1.721586788e-01 +2.196826703e-01
97500000000.000000 +2.552130501e-01 +1.703949309e-01 -6.103174889e-01 +6.234391288e-01 -6.410691276e-01 +5.883219142e-01 +2.064435171e-01 +2.252329282e-01
98000000000.000000 +2.920831832e-01 +1.605431281e-01 -5.391460767e-01 +6.770999622e-01 -5.823528839e-01 +6.416364265e-01 +2.452098379e-01 +2.209471180e-01
98500000000.000000 +3.131893438e-01 +1.588072926e-01 -4.791827698e-01 +7.122743523e-01 -5.291647710e-01 +6.765062232e-01 +2.827210955e-01 +2.132655748e-01
99000000000.000000 +3.409836037e-01 +1.498615310e-01 -4.190579873e-01 +7.409165985e-01 -4.587329359e-01 +7.102253160e-01 +3.175634121e-01 +1.991432814e-01
99500000000.000000 +3.613084387e-01 +1.315844260e-01 -3.569403946e-01 +7.624193812e-01 -3.975546071e-01 +7.400691960e-01 +3.469155623e-01 +1.788545144e-01
100000000000.000000 +3.860996314e-01 +1.112331785e-01 -2.828601530e-01 +7.824996391e-01 -3.332034068e-01 +7.662212772e-01 +3.764560155e-01 +1.519056423e-01
100500000000.000000 +4.068207719e-01 +7.823723876e-02 -2.134981665e-01 +7.999184078e-01 -2.660557069e-01 +7.821632437e-01 +3.985459405e-01 +1.280175551e-01
101000000000.000000 +4.190650066e-01 +6.481289588e-02 -1.569142617e-01 +8.079447195e-01 -2.054251284e-01 +7.967478755e-01 +4.206730083e-01 +9.405769242e-02
101500000000.000000 +4.298103598e-01 +4.281279708e-02 -1.004639882e-01 +8.165853486e-01 -1.432251295e-01 +8.060608431e-01 +4.329037569e-01 +6.509263598e-02
102000000000.000000 +4.404386775e-01 +1.157170067e-02 -2.535550736e-02 +8.171995753e-01 -7.619233006e-02 +8.093251546e-01 +4.465779365e-01 +2.618116845e-02
102500000000.000000 +4.401807866e-01 -2.331907218e-02 +4.325382938e-02 +8.159300820e-01 -1.004485079e-02 +8.146296879e-01 +4.511208589e-01 -8.259549977e-03
103000000000.000000 +4.402973623e-01 -5.264828263e-02 +1.117651400e-01 +8.034513104e-01 +5.113018935e-02 +8.096964318e-01 +4.484345619e-01 -4.230888293e-02
103500000000.000000 +4.338971441e-01 -8.831055435e-02 +1.670212599e-01 +7.945401588e-01 +1.073604971e-01 +8.043257931e-01 +4.471892266e-01 -6.949924333e-02
104000000000.000000 +4.328089995e-01 -1.111740002e-01 +2.241569273e-01 +7.804880738e-01 +1.736022173e-01 +7.876784806e-01 +4.384340270e-01 -1.018303395e-01
104500000000.000000 +4.206332125e-01 -1.429309225e-01 +2.785925532e-01 +7.635297942e-01 +2.313142971e-01 +7.783575677e-01 +4.293240940e-01 -1.311571101e-01
105000000000.000000 +4.042310629e-01 -1.612523795e-01 +3.405214229e-01 +7.417649669e-01 +2.974425714e-01 +7.566728025e-01 +4.100385875e-01 -1.647673258e-01
105500000000.000000 +3.804075261e-01 -1.941999769e-01 +3.904839467e-01 +7.168462534e-01 +3.514117389e-01 +7.340495731e-01 +3.922334576e-01 -1.858474320e-01
106000000000.000000 +3.679987329e-01 -2.101536692e-01 +4.542413244e-01 +6.897776465e-01 +4.183749309e-01 +7.074651374e-01 +3.714824660e-01 -2.134118187e-01
106500000000.000000 +3.376746159e-01 -2.356530892e-01 +5.105482638e-01 +6.530820531e-01 +4.705176844e-01 +6.771532572e-01 +3.463938054e-01 -2.319525730e-01
107000000000.000000 +3.084732704e-01 -2.646169327e-01 +5.701370340e-01 +6.109064735e-01 +5.340677987e-01 +6.413445463e-01 +3.213769822e-01 -2.479930107e-01
107500000000.000000 +2.685840638e-01 -2.619074413e-01 +6.218976949e-01 +5.641132561e-01 +5.881082104e-01 +5.984866669e-01 +2.882149148e-01 -2.649849093e-01
108000000000.000000 +2.500278339e-01 -2.780031743e-01 +6.708039839e-01 +5.171037298e-01 +6.360221522e-01 +5.541091898e-01 +2.612126691e-01 -2.693921520e-01
108500000000.000000 +2.064926721e-01 -2.809783978e-01 +7.154947478e-01 +4.618701534e-01 +6.833197946e-01 +5.053175397e-01 +2.256279343e-01 -2.765231197e-01
109000000000.000000 +1.818120390e-01 -2.766273045e-01 +7.512991381e-01 +3.981430405e-01 +7.214470022e-01 +4.428003153e-01 +1.985880852e-01 -2.778488874e-01
109500000000.000000 +1.423084303e-01 -2.787464489e-01 +7.949543880e-01 +3.225394715e-01 +7.735408732e-01 +3.858862498e-01 +1.715489753e-01 -2.750563251e-01
110000000000.000000 +1.171731826e-01 -2.723584785e-01 +8.256002704e-01 +2.738730144e-01 +7.934198715e-01 +3.296821569e-01 +1.447940243e-01 -2.696079999e-01
110500000000.000000 +8.317193413e-02 -2.459161540e-01 +8.503754922e-01 +1.996430572e-01 +8.380936159e-01 +2.622374232e-01 +1.121004793e-01 -2.527316328e-01
111000000000.000000 +6.163051997e-02 -2.404727590e-01 +8.773615766e-01 +1.097929487e-01 +8.536100429e-01 +1.805119232e-01 +8.995986207e-02 -2.400243040e-01
111500000000.000000 +2.582906552e-02 -2.046410695e-01 +8.890670269e-01 +2.045483519e-02 +8.814360982e-01 +1.042346997e-01 +6.870548561e-02 -2.204718042e-01
112000000000.000000 +1.844231911e-02 -1.859045431e-01 +8.957461579e-01 -2.986090476e-02 +8.839821391e-01 +2.887598927e-02 +4.992732902e-02 -1.893616191e-01
112500000000.000000 -6.635750223e-04 -1.637004576e-01 +8.837959368e-01 -1.191332635e-01 +8.938699954e-01 -6.227659520e-02 +3.631128238e-02 -1.756650033e-01
113000000000.000000 -3.691251714e-03 -1.191562339e-01 +8.714809059e-01 -2.073255133e-01 +8.817019915e-01 -1.339024528e-01 +2.937007520e-02 -1.386439010e-01
113500000000.000000 -6.023668377e-03 -1.086345611e-01 +8.480829237e-01 -2.749878121e-01 +8.723632961e-01 -2.237397107e-01 +2.034329205e-02 -1.168317118e-01
114000000000.000000 -2.088668451e-02 -7.453306073e-02 +8.207144239e-01 -3.684107104e-01 +8.564693178e-01 -2.931774937e-01 +1.747419989e-02 -8.902822942e-02
114500000000.000000 +1.139160997e-02 -5.130028113e-02 +7.889202061e-01 -4.337405172e-01 +8.223492428e-01 -3.700908338e-01 +2.214144295e-02 -5.319092235e-02
115000000000.000000 -1.430726980e-02 -4.086618619e-02 +7.303024326e-01 -5.377548346e-01 +7.787134667e-01 -4.637915769e-01 +3.209579732e-02 -4.368264909e-02
115500000000.000000 +3.609879860e-02 -2.923234776e-03 +7.033722497e-01 -5.754591686e-01 +7.479697653e-01 -5.178401065e-01 +4.622261358e-02 -5.432782037e-03
116000000000.000000 +4.929322966e-02 +7.636714564e-03 +6.471026309e-01 -6.425399948e-01 +6.782116554e-01 -5.888633926e-01 +6.334033441e-02 +1.198054536e-02
116500000000.000000 +4.258525249e-02 +2.914590701e-02 +5.625223168e-01 -7.126656006e-01 +6.241814632e-01 -6.587492901e-01 +8.026827976e-02 +2.175925902e-02
117000000000.000000 +1.096480806e-01 +3.066482710e-02 +5.159196776e-01 -7.420845310e-01 +5.803651130e-01 -7.056108824e-01 +1.063948881e-01 +4.480217096e-02
117500000000.000000 +1.280910849e-01 +3.216845291e-02 +4.472534286e-01 -7.729948429e-01 +4.971345445e-01 -7.449982394e-01 +1.382677868e-01 +5.334260646e-02
118000000000.000000 +1.593312499e-01 +3.229008243e-02 +3.719554212e-01 -8.111231502e-01 +4.323678515e-01 -7.940751954e-01 +1.608350860e-01 +6.067118204e-02
118500000000.000000 +1.909493977e-01 +2.066059460e-02 +2.876066160e-01 -8.387649761e-01 +3.597614543e-01 -8.138461791e-01 +1.904158114e-01 +5.565764840e-02
119000000000.000000 +2.034118574e-01 +1.088469749e-02 +2.128093348e-01 -8.593307672e-01 +2.777332799e-01 -8.299572804e-01 +2.157660704e-01 +4.604125723e-02
119500000000.000000 +2.369300878e-01 +1.375508584e-02 +1.433956441e-01 -8.681727963e-01 +2.034285872e-01 -8.522970830e-01 +2.468765423e-01 +3.852227453e-02
120000000000.000000 +2.621187280e-01 -3.791140812e-02 +5.176805784e-02 -8.708861301e-01 +1.258150152e-01 -8.634515104e-01 +2.732098410e-01 +2.858508448e-02
120500000000.000000 +2.499907122e-01 -4.794695911e-02 -2.723640772e-02 -8.687531919e-01 +4.756430987e-02 -8.581338059e-01 +2.873730132e-01 +8.161445337e-03
121000000000.000000 +2.844080155e-01 -6.732815751e-02 -7.203903728e-02 -8.529153537e-01 -1.453238612e-02 -8.561849587e-01 +3.124118763e-01 -1.788869340e-02
121500000000.000000 +3.027057956e-01 -1.012889504e-01 -1.610765907e-01 -8.288329713e-01 -9.922549152e-02 -8.457066896e-01 +3.297003732e-01 -4.750536612e-02
122000000000.000000 +3.127699198e-01 -1.213577046e-01 -2.196980815e-01 -8.124167395e-01 -1.576455808e-01 -8.300405682e-01 +3.387854197e-01 -7.103772050e-02
122500000000.000000 +3.142024713e-01 -1.772100893e-01 -3.114954537e-01 -7.769529819e-01 -2.402203919e-01 -7.980403322e-01 +3.536954166e-01 -1.031159350e-01
123000000000.000000 +3.097613575e-01 -1.847876531e-01 -3.487191081e-01 -7.594786459e-01 -3.011480363e-01 -7.860907079e-01 +3.491869442e-01 -1.354733211e-01
123500000000.000000 +3.133008963e-01 -2.095555763e-01 -4.064017436e-01 -7.247032405e-01 -3.484697994e-01 -7.564617718e-01 +3.483113324e-01 -1.659695208e-01
124000000000.000000 +2.977379008e-01 -2.392111968e-01 -4.596271440e-01 -6.874874081e-01 -4.131048248e-01 -7.115023343e-01 +3.453947952e-01 -1.962855099e-01
124500000000.000000 +2.877929704e-01 -2.653692972e-01 -5.096655236e-01 -6.419559065e-01 -4.761491734e-01 -6.743323543e-01 +3.235691874e-01 -2.245477788e-01
125000000000.000000 +2.743535890e-01 -2.848797873e-01 -5.591111063e-01 -5.887485698e-01 -5.171892962e-01 -6.510131688e-01 +3.169758945e-01 -2.555994721e-01
125500000000.000000 +2.523397036e-01 -2.999306876e-01 -6.078395665e-01 -5.358257663e-01 -5.613199866e-01 -5.810620722e-01 +2.874264092e-01 -2.782118108e-01
126000000000.000000 +2.306393877e-01 -3.266244301e-01 -6.428274946e-01 -5.002378088e-01 -6.146781488e-01 -5.298803608e-01 +2.795007413e-01 -3.142523017e-01
126500000000.000000 +2.137068311e-01 -3.606589249e-01 -6.846077311e-01 -4.468456124e-01 -6.630094286e-01 -4.887298177e-01 +2.701218958e-01 -3.257808713e-01
127000000000.000000 +1.844511699e-01 -3.864141473e-01 -7.126812699e-01 -3.890705188e-01 -6.897519589e-01 -4.316836463e-01 +2.312762223e-01 -3.408534814e-01
127500000000.000000 +1.686564995e-01 -3.936093220e-01 -7.449977367e-01 -3.259975150e-01 -7.162278384e-01 -3.809011675e-01 +2.077175283e-01 -3.652892718e-01
128000000000.000000 +1.140167449e-01 -3.826868220e-01 -7.698751166e-01 -2.549477029e-01 -7.517444296e-01 -3.218981437e-01 +1.770267114e-01 -3.824105228e-01
128500000000.000000 +9.088137196e-02 -3.920468429e-01 -7.849659092e-01 -2.055288227e-01 -7.736559422e-01 -2.676181895e-01 +1.638746694e-01 -3.787115627e-01
129000000000.000000 +4.984667148e-02 -4.135781401e-01 -7.997054567e-01 -1.383165225e-01 -7.887488837e-01 -2.026304835e-01 +1.272907565e-01 -3.821008406e-01
129500000000.000000 +3.284836497e-02 -4.140840351e-01 -8.162196314e-01 -9.048243075e-02 -8.161837291e-01 -1.475903888e-01 +9.303389042e-02 -3.760147189e-01
130000000000.000000 +1.160050509e-02 -3.927455990e-01 -8.202402197e-01 +1.587473004e-03 -8.261556275e-01 -9.065792417e-02 +5.895711581e-02 -3.759924145e-01
130500000000.000000 -5.049238921e-03 -3.622759392e-01 -8.356254277e-01 +4.891461340e-02 -8.260674881e-01 -9.825191545e-03 +2.840471799e-02 -3.820323151e-01
131000000000.000000 -5.289571408e-02 -3.284581799e-01 -8.209657155e-01 +1.277137395e-01 -8.365067357e-01 +6.643170729e-02 +2.285714673e-02 -3.652382229e-01
131500000000.000000 -9.107066985e-02 -3.059069339e-01 -8.134676329e-01 +2.031300800e-01 -8.247829011e-01 +1.427545531e-01 +6.592279095e-03 -3.378828846e-01
132000000000.000000 -1.091593400e-01 -3.062658560e-01 -7.994957714e-01 +2.775914206e-01 -8.150310354e-01 +2.080835605e-01 -2.609986882e-02 -3.000206166e-01
132500000000.000000 -9.836871297e-02 -2.896497627e-01 -7.832090505e-01 +3.511860736e-01 -8.092319706e-01 +2.894082153e-01 -5.527252793e-02 -2.850028787e-01
133000000000.000000 -1.267137336e-01 -2.445741909e-01 -7.578243223e-01 +4.061738127e-01 -7.923133668e-01 +3.501983905e-01 -7.361551758e-02 -2.787328363e-01
133500000000.000000 -1.277449204e-01 -2.021388179e-01 -7.120750324e-01 +4.818034793e-01 -7.583868324e-01 +4.020797195e-01 -6.801170025e-02 -2.573800151e-01
134000000000.000000 -1.335861770e-01 -1.782109771e-01 -6.738164103e-01 +5.578712586e-01 -7.097969813e-01 +4.930562415e-01 -5.916023099e-02 -2.074631772e-01
134500000000.000000 -1.342483957e-01 -1.439916917e-01 -6.343024839e-01 +6.189395003e-01 -6.900489896e-01 +5.450156885e-01 -9.671602701e-02 -1.649852313e-01
135000000000.000000 -9.717179688e-02 -1.182902638e-01 -5.799480595e-01 +6.533220524e-01 -6.264330508e-01 +6.136028311e-01 -7.903080688e-02 -1.557321450e-01
135500000000.000000 -7.794088298e-02 -9.184820397e-02 -5.219568998e-01 +7.137148979e-01 -5.754922065e-01 +6.675006155e-01 -6.834463546e-02 -1.391473752e-01
136000000000.000000 -7.719091646e-02 -4.530967290e-02 -4.208351011e-01 +7.749749288e-01 -5.084032022e-01 +7.285649383e-01 -4.126548599e-02 -1.075804111e-01
136500000000.000000 -2.817929802e-02 -5.260358816e-02 -3.715663883e-01 +8.023670070e-01 -4.424587548e-01 +7.646086466e-01 -1.456701735e-02 -8.130439331e-02
137000000000.000000 -3.158831369e-02 -3.966411676e-02 -3.023116198e-01 +8.298254488e-01 -3.766539048e-01 +8.050497887e-01 +5.379572882e-03 -5.772542565e-02
137500000000.000000 -3.581660160e-03 -3.568775909e-02 -2.237052064e-01 +8.562325091e-01 -2.926987262e-01 +8.335198345e-01 +2.788860473e-02 -5.180879561e-02
138000000000.000000 +4.128754170e-02 -3.814390553e-02 -1.386214167e-01 +8.756563937e-01 -2.134424907e-01 +8.618611909e-01 +5.743994943e-02 -4.327903819e-02
138500000000.000000 +6.603654572e-02 -2.868654558e-02 -5.415472993e-02 +8.821901870e-01 -1.273990124e-01 +8.708705153e-01 +7.824528956e-02 -3.785155161e-02
139000000000.000000 +1.068821044e-01 -4.975692618e-02 +3.346964950e-02 +8.768602337e-01 -4.983739795e-02 +8.805798244e-01 +1.065543669e-01 -3.905337931e-02
139500000000.000000 +1.154931747e-01 -4.902670823e-02 +9.590888955e-02 +8.700044792e-01 +3.180511079e-02 +8.717559855e-01 +1.309067878e-01 -5.703847108e-02
140000000000.000000 +2.167050014e-01 -3.467723479e-03 +1.965100277e-01 +8.394493895e-01 +1.126055803e-01 +8.568041186e-01 +1.583604315e-01 -6.176860803e-02
140500000000.000000 +1.656664129e-01 -1.380518341e-01 +2.811248717e-01 +8.362366202e-01 +1.882990277e-01 +8.559768514e-01 +1.758161752e-01 -7.981718139e-02
141000000000.000000 +1.452471476e-01 -7.559191837e-02 +3.421945744e-01 +7.881976477e-01 +2.620062324e-01 +8.202821961e-01 +1.900579702e-01 -9.012180744e-02
141500000000.000000 +1.768760973e-01 -1.296629775e-01 +4.034048198e-01 +7.584291052e-01 +3.334239491e-01 +7.835998224e-01 +2.048861537e-01 -1.192786173e-01
142000000000.000000 +2.072357364e-01 -1.677990920e-01 +4.526752629e-01 +7.221225280e-01 +3.883966269e-01 +7.467965154e-01 +2.193089251e-01 -1.356571092e-01
142500000000.000000 +2.029782398e-01 -1.966718289e-01 +5.414683900e-01 +6.578073667e-01 +4.592131950e-01 +7.076615995e-01 +2.280590191e-01 -1.728158986e-01
143000000000.000000 +1.892301177e-01 -2.341461756e-01 +5.715005605e-01 +6.119139019e-01 +5.071418327e-01 +6.620235958e-01 +2.238762511e-01 -1.941526811e-01
143500000000.000000 +1.900695241e-01 -2.707376648e-01 +6.339215336e-01 +5.425863813e-01 +5.582154486e-01 +6.130171373e-01 +2.169614348e-01 -2.215739234e-01
144000000000.000000 +1.911721198e-01 -2.871978822e-01 +6.688698466e-01 +4.979489850e-01 +6.080604695e-01 +5.578072558e-01 +2.131435191e-01 -2.542200303e-01
144500000000.000000 +1.670545463e-01 -3.123643937e-01 +7.093865041e-01 +4.290400422e-01 +6.507358195e-01 +4.979594325e-01 +1.960863039e-01 -2.851249404e-01
145000000000.000000 +1.250628537e-01 -3.279312112e-01 +7.223155011e-01 +3.679526788e-01 +6.851456626e-01 +4.332493201e-01 +1.814724581e-01 -2.985221243e-01
145500000000.000000 +1.185537010e-01 -3.563020630e-01 +7.419420871e-01 +3.124978693e-01 +7.162711160e-01 +3.771045282e-01 +1.450137185e-01 -3.141326144e-01
146000000000.000000 +1.134645075e-01 -3.626470012e-01 +7.663487409e-01 +2.559403350e-01 +7.398974928e-01 +3.225671828e-01 +1.193475598e-01 -3.327133418e-01
146500000000.000000 +7.467604314e-02 -3.861744832e-01 +7.743651082e-01 +2.096831442e-01 +7.553977633e-01 +2.634247339e-01 +1.182748078e-01 -3.577987472e-01
147000000000.000000 +7.246879278e-02 -4.094433067e-01 +7.959227043e-01 +1.178457607e-01 +7.733286893e-01 +1.990748762e-01 +5.881147462e-02 -3.710245063e-01
147500000000.000000 +2.786696309e-02 -4.127510851e-01 +8.033311933e-01 +5.385536081e-02 +7.944573216e-01 +1.359604385e-01 +4.718105267e-02 -3.792321255e-01
148000000000.000000 +1.265447629e-02 -4.203995165e-01 +8.009162885e-01 +5.830802122e-03 +7.898729302e-01 +7.649998354e-02 +1.873624549e-02 -3.861720317e-01
148500000000.000000 -1.230023212e-02 -4.237376105e-01 +7.951298132e-01 -6.366599121e-02 +7.929176820e-01 +7.280820212e-03 -1.214457006e-02 -3.985754963e-01
149000000000.000000 -6.172049486e-02 -4.249029879e-01 +7.856960992e-01 -1.133031281e-01 +7.886071531e-01 -5.259342618e-02 -3.965588635e-02 -3.902597986e-01
149500000000.000000 -1.234251900e-01 -4.382866402e-01 +7.667348238e-01 -1.957229915e-01 +7.766968110e-01 -1.223860758e-01 -6.443467400e-02 -4.040852433e-01
150000000000.000000 -1.149648400e-01 -4.227897310e-01 +7.553549688e-01 -2.439036187e-01 +7.710951684e-01 -1.717627498e-01 -1.059767487e-01 -3.948295921e-01
