! hatab_megtron7_step30_6p0mm: multiline TRL calibrated (TUGMultilineTRL, scikit-rf 2.1.0)
! raw data ZiadHatab/verification-multiline-trl-calibration @ 021e735, mean of the repeated sweeps
! reference impedance: characteristic impedance of the 94 um 50 Ohm line,
! NOT 50 Ohm; the R value below is a placeholder required by the format
# Hz S RI R 50
1000000000.000000 -3.060309771e-02 -1.094862813e-01 +9.506902521e-01 -2.641564097e-01 +9.512785897e-01 -2.630162857e-01 -3.326779291e-02 -1.125860733e-01
1500000000.000000 -6.455715940e-02 -1.559730257e-01 +8.998274102e-01 -3.834373384e-01 +9.008818274e-01 -3.811344035e-01 -6.944906884e-02 -1.530581614e-01
2000000000.000000 -1.132497158e-01 -1.921654954e-01 +8.319798859e-01 -4.900619074e-01 +8.337639884e-01 -4.860856954e-01 -1.165592413e-01 -1.838452888e-01
2500000000.000000 -1.594696595e-01 -2.087296629e-01 +7.568502871e-01 -5.830570375e-01 +7.556680883e-01 -5.838092931e-01 -1.712341076e-01 -2.052313957e-01
3000000000.000000 -2.084975877e-01 -2.180065515e-01 +6.703399899e-01 -6.618749426e-01 +6.703725033e-01 -6.618215709e-01 -2.256373549e-01 -2.132973220e-01
3500000000.000000 -2.622010732e-01 -2.204853556e-01 +5.767832972e-01 -7.269733047e-01 +5.764593738e-01 -7.269093284e-01 -2.782496419e-01 -2.031850597e-01
4000000000.000000 -3.153082042e-01 -2.076565900e-01 +4.816455483e-01 -7.775754352e-01 +4.816202257e-01 -7.768613323e-01 -3.285422097e-01 -1.827927920e-01
4500000000.000000 -3.579818943e-01 -1.810951681e-01 +3.855401250e-01 -8.157522680e-01 +3.847463319e-01 -8.159613749e-01 -3.739165044e-01 -1.543505556e-01
5000000000.000000 -3.922547564e-01 -1.487712100e-01 +2.892550319e-01 -8.434468064e-01 +2.883627404e-01 -8.438289212e-01 -4.110541729e-01 -1.186995918e-01
5500000000.000000 -4.226150521e-01 -1.137940624e-01 +1.919252384e-01 -8.612504912e-01 +1.911997574e-01 -8.613902070e-01 -4.396165916e-01 -7.503277888e-02
6000000000.000000 -4.497014715e-01 -7.145792082e-02 +9.640968528e-02 -8.696117632e-01 +9.562085218e-02 -8.696668661e-01 -4.541153379e-01 -2.820440715e-02
6500000000.000000 -4.622224525e-01 -2.311004659e-02 +5.161519917e-03 -8.694329794e-01 +4.603416252e-03 -8.689228857e-01 -4.668765823e-01 +2.148643970e-02
7000000000.000000 -4.671337195e-01 +2.837442946e-02 -8.628802321e-02 -8.607573124e-01 -8.682774824e-02 -8.600416622e-01 -4.688723365e-01 +7.160595516e-02
7500000000.000000 -4.629556214e-01 +7.652423501e-02 -1.767942678e-01 -8.454990925e-01 -1.774118784e-01 -8.435617023e-01 -4.602222874e-01 +1.185846118e-01
8000000000.000000 -4.533774663e-01 +1.208038782e-01 -2.651281934e-01 -8.221190904e-01 -2.655985211e-01 -8.211269015e-01 -4.396833833e-01 +1.624141664e-01
8500000000.000000 -4.320397501e-01 +1.677618358e-01 -3.513295073e-01 -7.935227319e-01 -3.514886137e-01 -7.929945032e-01 -4.154998108e-01 +2.041810002e-01
9000000000.000000 -3.979779921e-01 +2.111560193e-01 -4.366563056e-01 -7.560512554e-01 -4.368133353e-01 -7.553736965e-01 -3.879438334e-01 +2.406280659e-01
9500000000.000000 -3.571580971e-01 +2.432324315e-01 -5.188944646e-01 -7.098262959e-01 -5.193102913e-01 -7.090158202e-01 -3.502396417e-01 +2.686536953e-01
10000000000.000000 -3.178159700e-01 +2.710726365e-01 -5.984835063e-01 -6.524428917e-01 -5.996406572e-01 -6.531111221e-01 -3.074974682e-01 +2.876973268e-01
10500000000.000000 -2.692099154e-01 +2.921540047e-01 -6.741745968e-01 -5.883557135e-01 -6.753944501e-01 -5.884928819e-01 -2.634440270e-01 +3.002029435e-01
11000000000.000000 -2.147473974e-01 +3.034782646e-01 -7.442087435e-01 -5.150013386e-01 -7.453452472e-01 -5.141295355e-01 -2.153268346e-01 +3.032473404e-01
11500000000.000000 -1.582283586e-01 +2.998273293e-01 -8.085660314e-01 -4.309974697e-01 -8.096471164e-01 -4.307297902e-01 -1.692854230e-01 +2.995597262e-01
12000000000.000000 -1.063005854e-01 +2.834835172e-01 -8.639699253e-01 -3.358539998e-01 -8.659729932e-01 -3.345914613e-01 -1.276750465e-01 +2.824281991e-01
12500000000.000000 -6.019701321e-02 +2.607125374e-01 -9.084911434e-01 -2.308329346e-01 -9.095500687e-01 -2.304157648e-01 -8.979932762e-02 +2.546257905e-01
13000000000.000000 -2.124167291e-02 +2.260266992e-01 -9.407827882e-01 -1.197955613e-01 -9.415057003e-01 -1.180831058e-01 -5.430198490e-02 +2.206368845e-01
13500000000.000000 +1.170915493e-02 +1.808488121e-01 -9.560817019e-01 -4.440896508e-05 -9.561867994e-01 +8.500245054e-04 -2.832092557e-02 +1.804515618e-01
14000000000.000000 +3.561409262e-02 +1.249446321e-01 -9.545582281e-01 +1.231749814e-01 -9.544912860e-01 +1.239228676e-01 -1.808796605e-02 +1.356346720e-01
14500000000.000000 +3.554354696e-02 +7.025306659e-02 -9.352105456e-01 +2.463566436e-01 -9.347914930e-01 +2.471294686e-01 -1.632361285e-02 +8.825366113e-02
15000000000.000000 +2.471605829e-02 +2.233400819e-02 -8.979502316e-01 +3.667385227e-01 -8.978948358e-01 +3.676632310e-01 -2.421386871e-02 +4.098712668e-02
15500000000.000000 +7.254067056e-03 -2.766708064e-02 -8.427103451e-01 +4.794844507e-01 -8.421662394e-01 +4.813283134e-01 -4.472901314e-02 -1.670904266e-03
16000000000.000000 -3.123559025e-02 -6.758047927e-02 -7.715184555e-01 +5.827184974e-01 -7.700448202e-01 +5.847487698e-01 -7.403519623e-02 -3.853337340e-02
16500000000.000000 -7.717843363e-02 -9.514712085e-02 -6.858720298e-01 +6.739166804e-01 -6.840386566e-01 +6.751376797e-01 -1.108697315e-01 -6.465227897e-02
17000000000.000000 -1.277332157e-01 -1.132768903e-01 -5.884336762e-01 +7.506313326e-01 -5.867576903e-01 +7.506322098e-01 -1.571893578e-01 -8.144189957e-02
17500000000.000000 -1.787829454e-01 -1.094628892e-01 -4.812144995e-01 +8.116421301e-01 -4.794594772e-01 +8.119343879e-01 -2.010898754e-01 -9.239874180e-02
18000000000.000000 -2.370224655e-01 -1.023270877e-01 -3.775316862e-01 +8.552130877e-01 -3.760683068e-01 +8.549490504e-01 -2.417202133e-01 -8.561572673e-02
18500000000.000000 -2.901047024e-01 -8.128910890e-02 -2.663648191e-01 +8.826347078e-01 -2.657413820e-01 +8.824252744e-01 -2.909885483e-01 -7.058016888e-02
19000000000.000000 -3.205535969e-01 -5.230051449e-02 -1.582133652e-01 +8.980326869e-01 -1.558148329e-01 +8.982469504e-01 -3.299988378e-01 -4.948625336e-02
19500000000.000000 -3.600700213e-01 -8.012069912e-03 -5.317165378e-02 +8.990384382e-01 -5.074648791e-02 +8.990004237e-01 -3.604864465e-01 -1.732026373e-02
20000000000.000000 -3.749295485e-01 +4.704200080e-02 +4.981790788e-02 +8.898388274e-01 +5.066391697e-02 +8.876278447e-01 -3.859884659e-01 +1.421012325e-02
20500000000.000000 -3.852940627e-01 +9.249925508e-02 +1.472796446e-01 +8.694343239e-01 +1.490911099e-01 +8.669342819e-01 -4.082385091e-01 +5.181974453e-02
21000000000.000000 -3.939480881e-01 +1.420474613e-01 +2.394603218e-01 +8.384951348e-01 +2.420577744e-01 +8.373974113e-01 -4.169682303e-01 +9.787234992e-02
21500000000.000000 -3.833988498e-01 +1.927047668e-01 +3.286995893e-01 +8.045351028e-01 +3.294267741e-01 +8.026359391e-01 -4.078913277e-01 +1.433000968e-01
22000000000.000000 -3.623356625e-01 +2.412849776e-01 +4.085671959e-01 +7.587166924e-01 +4.103841948e-01 +7.581515642e-01 -4.093760576e-01 +1.871499790e-01
22500000000.000000 -3.377384423e-01 +2.788609069e-01 +4.842056990e-01 +7.074661932e-01 +4.859113740e-01 +7.061433863e-01 -3.921342816e-01 +2.208663448e-01
23000000000.000000 -3.158334061e-01 +3.149603468e-01 +5.612184950e-01 +6.493936693e-01 +5.613831870e-01 +6.489433549e-01 -3.631738940e-01 +2.628942748e-01
23500000000.000000 -2.813939710e-01 +3.500142835e-01 +6.262706287e-01 +5.867655523e-01 +6.275789593e-01 +5.858593027e-01 -3.304222245e-01 +2.977696109e-01
24000000000.000000 -2.300106630e-01 +3.689547587e-01 +6.843119153e-01 +5.183560575e-01 +6.853717404e-01 +5.164781387e-01 -2.961024950e-01 +3.264356840e-01
24500000000.000000 -1.877272734e-01 +3.766026691e-01 +7.402218235e-01 +4.425719451e-01 +7.416956712e-01 +4.403115491e-01 -2.537190631e-01 +3.510416441e-01
25000000000.000000 -1.526843516e-01 +3.837037338e-01 +7.911857957e-01 +3.594341819e-01 +7.914202374e-01 +3.582267612e-01 -2.040492423e-01 +3.676095382e-01
25500000000.000000 -1.086123303e-01 +3.891803376e-01 +8.328226685e-01 +2.733609212e-01 +8.330290802e-01 +2.706445449e-01 -1.506953687e-01 +3.700363913e-01
26000000000.000000 -6.266207548e-02 +3.824596510e-01 +8.644301733e-01 +1.821330252e-01 +8.643818307e-01 +1.796236328e-01 -1.026640384e-01 +3.708364741e-01
26500000000.000000 -1.902040851e-02 +3.584220251e-01 +8.866829335e-01 +8.323800337e-02 +8.875372615e-01 +8.048736935e-02 -5.802562480e-02 +3.586843282e-01
27000000000.000000 +8.941450861e-03 +3.344487767e-01 +8.990757123e-01 -2.301695074e-02 +8.984170122e-01 -2.558854188e-02 -1.252686100e-02 +3.354457367e-01
27500000000.000000 +3.191001133e-02 +3.082578155e-01 +9.012713426e-01 -1.288549852e-01 +8.999915929e-01 -1.334526398e-01 +3.369166320e-02 +3.060880790e-01
28000000000.000000 +5.769756861e-02 +2.700723299e-01 +8.858449924e-01 -2.389137459e-01 +8.852739803e-01 -2.401381246e-01 +6.376081127e-02 +2.711442138e-01
28500000000.000000 +7.311473359e-02 +2.221250706e-01 +8.600718271e-01 -3.474505664e-01 +8.590194105e-01 -3.498710167e-01 +8.548808749e-02 +2.290799594e-01
29000000000.000000 +8.024020311e-02 +1.804143306e-01 +8.157061327e-01 -4.556839461e-01 +8.155539056e-01 -4.571995442e-01 +9.379275373e-02 +1.777111810e-01
29500000000.000000 +7.173983282e-02 +1.388169536e-01 +7.576327681e-01 -5.568033964e-01 +7.552056753e-01 -5.595855589e-01 +8.980839382e-02 +1.300232566e-01
30000000000.000000 +5.540653963e-02 +1.138950369e-01 +6.833408540e-01 -6.525159724e-01 +6.814610531e-01 -6.539252353e-01 +8.051929199e-02 +7.853110501e-02
30500000000.000000 +2.952877600e-02 +7.379795482e-02 +5.850816901e-01 -7.544708207e-01 +6.027087794e-01 -7.374985989e-01 +5.578033528e-02 +3.396216124e-02
31000000000.000000 -4.170795355e-03 +4.734576058e-02 +4.841821086e-01 -8.237621445e-01 +5.034899169e-01 -8.098524465e-01 +1.938003615e-02 +2.259652465e-05
31500000000.000000 -4.552278184e-02 +2.908202336e-02 +3.739120744e-01 -8.790847507e-01 +3.938523097e-01 -8.677855764e-01 -2.457931192e-02 -2.352168627e-02
32000000000.000000 -8.719440306e-02 +2.213948224e-02 +2.575031671e-01 -9.170670787e-01 +2.795986201e-01 -9.082301426e-01 -7.307600672e-02 -3.452227928e-02
32500000000.000000 -1.295242177e-01 +2.707873781e-02 +1.380356432e-01 -9.372451159e-01 +1.602584094e-01 -9.308917310e-01 -1.226718485e-01 -3.334900240e-02
33000000000.000000 -1.695925159e-01 +4.118597122e-02 +1.852416654e-02 -9.403661967e-01 +4.046321224e-02 -9.365947239e-01 -1.698950570e-01 -1.894659510e-02
33500000000.000000 -2.036878374e-01 +6.419509837e-02 -1.009742308e-01 -9.261922298e-01 -7.267298056e-02 -9.266171152e-01 -2.127246820e-01 +7.108178980e-03
34000000000.000000 -2.371628191e-01 +9.468236323e-02 -2.125636376e-01 -8.971714366e-01 -1.863736668e-01 -9.012984090e-01 -2.491131166e-01 +4.391584888e-02
34500000000.000000 -2.591403149e-01 +1.312404571e-01 -3.138595036e-01 -8.561118780e-01 -2.908854261e-01 -8.615619813e-01 -2.757441524e-01 +8.732753929e-02
35000000000.000000 -2.743930526e-01 +1.729705752e-01 -4.092383214e-01 -8.014892449e-01 -3.843460788e-01 -8.123010724e-01 -2.925400652e-01 +1.371686450e-01
35500000000.000000 -2.780733743e-01 +2.161871207e-01 -4.940123733e-01 -7.400077500e-01 -4.696935731e-01 -7.531424278e-01 -2.995397075e-01 +1.859820077e-01
36000000000.000000 -2.744898802e-01 +2.585645160e-01 -5.677157697e-01 -6.722702866e-01 -5.473401189e-01 -6.862262841e-01 -2.952355423e-01 +2.362916178e-01
36500000000.000000 -2.607494195e-01 +3.040726883e-01 -6.329573817e-01 -5.973950707e-01 -6.139431694e-01 -6.135524106e-01 -2.825192645e-01 +2.828420976e-01
37000000000.000000 -2.390201695e-01 +3.410037557e-01 -6.888464404e-01 -5.190057881e-01 -6.715709482e-01 -5.373591253e-01 -2.607796086e-01 +3.273323717e-01
37500000000.000000 -2.130048092e-01 +3.764733580e-01 -7.355371335e-01 -4.363194019e-01 -7.196644927e-01 -4.583236333e-01 -2.295554808e-01 +3.663410725e-01
38000000000.000000 -1.767867204e-01 +4.050593123e-01 -7.729439135e-01 -3.530944124e-01 -7.603339989e-01 -3.754746890e-01 -1.947265146e-01 +3.989101337e-01
38500000000.000000 -1.385802115e-01 +4.278385473e-01 -8.019607057e-01 -2.683085001e-01 -7.925553939e-01 -2.894650877e-01 -1.540265171e-01 +4.232270525e-01
39000000000.000000 -9.368709631e-02 +4.422507270e-01 -8.244634570e-01 -1.849689756e-01 -8.190319836e-01 -1.998012148e-01 -1.109807553e-01 +4.396289517e-01
39500000000.000000 -5.009705046e-02 +4.472605391e-01 -8.390758290e-01 -9.119985076e-02 -8.340473763e-01 -1.163686873e-01 -6.453669853e-02 +4.466884157e-01
40000000000.000000 -4.928175639e-03 +4.442829810e-01 -8.463507124e-01 +1.704519926e-03 -8.439604855e-01 -2.949600788e-02 -1.789867128e-02 +4.459394522e-01
40500000000.000000 +4.034447726e-02 +4.322453901e-01 -8.461132921e-01 +8.963857860e-02 -8.459821549e-01 +6.481923108e-02 +2.773846894e-02 +4.365739146e-01
41000000000.000000 +8.174193723e-02 +4.122860262e-01 -8.369533626e-01 +1.811870215e-01 -8.398042514e-01 +1.581264024e-01 +6.990051156e-02 +4.179824038e-01
41500000000.000000 +1.195665498e-01 +3.849905588e-01 -8.184528991e-01 +2.765574517e-01 -8.227012989e-01 +2.508231630e-01 +1.081260936e-01 +3.915021450e-01
42000000000.000000 +1.516067918e-01 +3.478518014e-01 -7.913241467e-01 +3.675935988e-01 -7.983054288e-01 +3.449908283e-01 +1.373544459e-01 +3.577618081e-01
42500000000.000000 +1.733995446e-01 +3.035069056e-01 -7.522716374e-01 +4.618711137e-01 -7.625559749e-01 +4.400559186e-01 +1.608639688e-01 +3.167481985e-01
43000000000.000000 +1.890685284e-01 +2.560781085e-01 -7.001804550e-01 +5.544618348e-01 -7.157006175e-01 +5.320708144e-01 +1.740324549e-01 +2.711228948e-01
43500000000.000000 +1.917982681e-01 +2.038054086e-01 -6.364784065e-01 +6.432286486e-01 -6.536170945e-01 +6.219933740e-01 +1.765901173e-01 +2.242196900e-01
44000000000.000000 +1.810535229e-01 +1.517464232e-01 -5.581127423e-01 +7.252727208e-01 -5.790216738e-01 +7.050706078e-01 +1.667419684e-01 +1.772098950e-01
44500000000.000000 +1.584905746e-01 +1.018734899e-01 -4.667891971e-01 +7.970585005e-01 -4.888951136e-01 +7.811256500e-01 +1.438856978e-01 +1.340817435e-01
45000000000.000000 +1.221209743e-01 +6.012223145e-02 -3.622292396e-01 +8.578862416e-01 -3.900095418e-01 +8.424256220e-01 +1.095868429e-01 +9.655186399e-02
45500000000.000000 +7.805336920e-02 +2.745683697e-02 -2.468279321e-01 +9.029760238e-01 -2.777347645e-01 +8.909290552e-01 +6.718546784e-02 +6.826365830e-02
46000000000.000000 +2.297406069e-02 +7.869139610e-03 -1.253002592e-01 +9.308450617e-01 -1.600673809e-01 +9.213068516e-01 +1.736140662e-02 +5.290486923e-02
46500000000.000000 -3.222291060e-02 +5.346864657e-03 -9.619020608e-04 +9.376816333e-01 -3.606596197e-02 +9.348062656e-01 -3.385535722e-02 +4.918677521e-02
47000000000.000000 -8.723218996e-02 +1.637286383e-02 +1.228172349e-01 +9.255812211e-01 +8.638483564e-02 +9.271009267e-01 -8.558509907e-02 +5.802370841e-02
47500000000.000000 -1.381381600e-01 +4.127195703e-02 +2.430395614e-01 +8.940729736e-01 +2.066248906e-01 +9.013900170e-01 -1.324634494e-01 +8.151602215e-02
48000000000.000000 -1.813920297e-01 +7.852906137e-02 +3.520054965e-01 +8.461994010e-01 +3.174512999e-01 +8.571446740e-01 -1.719503508e-01 +1.153795996e-01
48500000000.000000 -2.121067003e-01 +1.280600048e-01 +4.507947861e-01 +7.853932338e-01 +4.190714847e-01 +8.004604209e-01 -2.017743641e-01 +1.571655081e-01
49000000000.000000 -2.307991080e-01 +1.801271247e-01 +5.371041084e-01 +7.143830797e-01 +5.075634476e-01 +7.311534074e-01 -2.214676347e-01 +2.051111328e-01
49500000000.000000 -2.339518033e-01 +2.385192391e-01 +6.130448870e-01 +6.319940948e-01 +5.825869838e-01 +6.563512984e-01 -2.301320332e-01 +2.502437472e-01
50000000000.000000 -2.252044398e-01 +2.918358334e-01 +6.717327004e-01 +5.477985125e-01 +6.463087206e-01 +5.719869335e-01 -2.264446454e-01 +2.990625685e-01
50500000000.000000 -2.061848131e-01 +3.425827858e-01 +7.182526790e-01 +4.601499619e-01 +6.994344348e-01 +4.863009037e-01 -2.116837102e-01 +3.444255622e-01
51000000000.000000 -1.747405313e-01 +3.873999518e-01 +7.553019981e-01 +3.724037057e-01 +7.389105514e-01 +3.974733800e-01 -1.902194781e-01 +3.847695794e-01
51500000000.000000 -1.386793548e-01 +4.232188674e-01 +7.825272409e-01 +2.827091253e-01 +7.689861449e-01 +3.087335108e-01 -1.589324532e-01 +4.187774629e-01
52000000000.000000 -9.309266764e-02 +4.550729362e-01 +7.991908238e-01 +1.946208371e-01 +7.896708252e-01 +2.218746167e-01 -1.247142591e-01 +4.483168147e-01
52500000000.000000 -4.379536590e-02 +4.729159420e-01 +8.099520660e-01 +1.030145235e-01 +8.013548221e-01 +1.399796467e-01 -8.503832563e-02 +4.707525868e-01
53000000000.000000 +4.699435807e-03 +4.839846271e-01 +8.114505652e-01 +1.970689052e-02 +8.072776718e-01 +5.183828318e-02 -4.037014267e-02 +4.825213447e-01
53500000000.000000 +5.595572994e-02 +4.824475331e-01 +8.072218736e-01 -6.314038881e-02 +8.061445093e-01 -3.392325298e-02 +3.607777717e-03 +4.878159769e-01
54000000000.000000 +1.027035203e-01 +4.723833419e-01 +7.958616443e-01 -1.485480181e-01 +7.992436185e-01 -1.154912006e-01 +5.116359504e-02 +4.833423618e-01
54500000000.000000 +1.569560586e-01 +4.575195159e-01 +7.756618624e-01 -2.381420577e-01 +7.843080065e-01 -1.990249164e-01 +9.690788144e-02 +4.712717255e-01
55000000000.000000 +1.925807483e-01 +4.299987028e-01 +7.526901041e-01 -3.161448238e-01 +7.638512514e-01 -2.819131517e-01 +1.416319699e-01 +4.516003535e-01
55500000000.000000 +2.275094449e-01 +3.989028829e-01 +7.183825437e-01 -3.981433268e-01 +7.340911345e-01 -3.635459983e-01 +1.826077539e-01 +4.228944190e-01
56000000000.000000 +2.575234898e-01 +3.601604933e-01 +6.758827203e-01 -4.816819607e-01 +6.995167104e-01 -4.442515040e-01 +2.162838491e-01 +3.862641461e-01
56500000000.000000 +2.737934982e-01 +3.185616462e-01 +6.328440246e-01 -5.507153641e-01 +6.516084573e-01 -5.263245247e-01 +2.441209689e-01 +3.425675550e-01
57000000000.000000 +2.879524644e-01 +2.732485728e-01 +5.697721567e-01 -6.303575660e-01 +5.942755104e-01 -6.035451645e-01 +2.640132635e-01 +2.944054811e-01
57500000000.000000 +2.902620599e-01 +2.230984163e-01 +5.016061463e-01 -6.987746609e-01 +5.289904405e-01 -6.750452561e-01 +2.738006662e-01 +2.447355876e-01
58000000000.000000 +2.823526560e-01 +1.817562199e-01 +4.216037124e-01 -7.625603487e-01 +4.511693808e-01 -7.445112728e-01 +2.745605760e-01 +1.899735568e-01
58500000000.000000 +2.677739682e-01 +1.400472536e-01 +3.385032040e-01 -8.162108724e-01 +3.632493067e-01 -8.033709915e-01 +2.602958588e-01 +1.399319562e-01
59000000000.000000 +2.412943580e-01 +9.971557094e-02 +2.267338774e-01 -8.645764730e-01 +2.690427604e-01 -8.499698849e-01 +2.396295211e-01 +9.506524818e-02
59500000000.000000 +2.070378319e-01 +7.317197744e-02 +1.221949233e-01 -8.956569126e-01 +1.600781039e-01 -8.852139875e-01 +2.070316447e-01 +5.122298640e-02
60000000000.000000 +1.685613598e-01 +4.659764358e-02 +1.089201334e-02 -9.106579123e-01 +4.767182225e-02 -9.061420692e-01 +1.700938938e-01 +1.950195085e-02
60500000000.000000 +1.273238908e-01 +3.748818596e-02 -1.004269560e-01 -9.111486378e-01 -6.680876915e-02 -9.113619192e-01 +1.227643725e-01 +2.543138479e-05
61000000000.000000 +8.439582868e-02 +3.172575387e-02 -2.256946880e-01 -8.933107070e-01 -1.843623056e-01 -8.993556037e-01 +7.453209980e-02 -8.729271073e-03
61500000000.000000 +4.342005518e-02 +3.875577056e-02 -3.374058879e-01 -8.580135639e-01 -2.995223546e-01 -8.707863448e-01 +2.714479888e-02 -3.720703378e-03
62000000000.000000 +8.583017891e-03 +5.887143140e-02 -4.443850317e-01 -8.086528821e-01 -4.130609296e-01 -8.241539121e-01 -1.736734012e-02 +9.257708557e-03
62500000000.000000 -2.203396341e-02 +8.245714580e-02 -5.502784459e-01 -7.386233885e-01 -5.104802030e-01 -7.626712915e-01 -5.539147821e-02 +4.065652275e-02
63000000000.000000 -4.602389146e-02 +1.171008294e-01 -6.388095471e-01 -6.568511822e-01 -6.009528659e-01 -6.898710234e-01 -8.029579532e-02 +7.708084061e-02
63500000000.000000 -5.847124983e-02 +1.561020045e-01 -7.169208947e-01 -5.611410221e-01 -6.786937240e-01 -6.045782358e-01 -9.791019783e-02 +1.189265937e-01
64000000000.000000 -6.826075677e-02 +1.866319365e-01 -7.720536037e-01 -4.691783657e-01 -7.439463974e-01 -5.097051233e-01 -1.000135767e-01 +1.623855627e-01
64500000000.000000 -6.761416045e-02 +2.248884893e-01 -8.210781254e-01 -3.583217898e-01 -7.947838591e-01 -4.119163747e-01 -8.767327377e-02 +2.095151604e-01
65000000000.000000 -5.466818519e-02 +2.605582715e-01 -8.435299078e-01 -2.727839593e-01 -8.307947159e-01 -3.077269361e-01 -7.680100613e-02 +2.512304423e-01
65500000000.000000 -3.287164730e-02 +2.935387188e-01 -8.656329205e-01 -1.559865980e-01 -8.517083872e-01 -2.045450044e-01 -4.648485187e-02 +2.858591463e-01
66000000000.000000 -1.374433229e-02 +3.244211455e-01 -8.686930271e-01 -5.600019521e-02 -8.618136878e-01 -1.013305567e-01 -9.032201490e-03 +3.158535958e-01
66500000000.000000 +2.082345100e-02 +3.434874714e-01 -8.619882205e-01 +4.503834918e-02 -8.608050442e-01 -1.170297278e-04 +2.945442289e-02 +3.375133836e-01
67000000000.000000 +5.162585110e-02 +3.610248661e-01 -8.444853131e-01 +1.407723488e-01 -8.476268239e-01 +9.720864882e-02 +7.379884776e-02 +3.493434775e-01
67500000000.000000 +8.730920402e-02 +3.654250022e-01 -8.177742631e-01 +2.313929475e-01 -8.249983295e-01 +1.902564127e-01 +1.201488692e-01 +3.533670818e-01
68000000000.000000 +1.274315225e-01 +3.677767646e-01 -7.792273050e-01 +3.225200877e-01 -7.939786292e-01 +2.777049618e-01 +1.627799628e-01 +3.465588114e-01
68500000000.000000 +1.674587728e-01 +3.600411062e-01 -7.366842031e-01 +4.072819014e-01 -7.546358872e-01 +3.627066104e-01 +2.047378048e-01 +3.355506613e-01
69000000000.000000 +2.048382041e-01 +3.495180510e-01 -6.839616240e-01 +4.839265383e-01 -7.078964005e-01 +4.420588621e-01 +2.473883695e-01 +3.143788701e-01
69500000000.000000 +2.378813822e-01 +3.272222669e-01 -6.201655955e-01 +5.601014918e-01 -6.517444220e-01 +5.174073139e-01 +2.813664802e-01 +2.876910022e-01
70000000000.000000 +2.665253706e-01 +3.059756231e-01 -5.651522956e-01 +6.172118592e-01 -5.925038399e-01 +5.845430688e-01 +3.101196054e-01 +2.563679084e-01
70500000000.000000 +2.955068696e-01 +2.699463277e-01 -4.897489523e-01 +6.806010649e-01 -5.238511410e-01 +6.479343523e-01 +3.305152370e-01 +2.203302986e-01
71000000000.000000 +3.162120005e-01 +2.302910567e-01 -4.130253916e-01 +7.322696669e-01 -4.494195376e-01 +7.074639066e-01 +3.426204111e-01 +1.845257555e-01
71500000000.000000 +3.298932339e-01 +1.879562991e-01 -3.261688046e-01 +7.779147697e-01 -3.709327768e-01 +7.536713110e-01 +3.485808785e-01 +1.444204204e-01
72000000000.000000 +3.303318066e-01 +1.474092260e-01 -2.460930317e-01 +8.135193248e-01 -2.853126487e-01 +7.955687615e-01 +3.486196316e-01 +1.062207864e-01
72500000000.000000 +3.297167526e-01 +1.017170775e-01 -1.458161502e-01 +8.448853106e-01 -1.958341076e-01 +8.319426369e-01 +3.386697213e-01 +6.773371189e-02
73000000000.000000 +3.103574883e-01 +6.287925455e-02 -5.051949678e-02 +8.618872036e-01 -9.674296266e-02 +8.584858302e-01 +3.211601077e-01 +3.303557712e-02
73500000000.000000 +2.889708344e-01 +2.474731762e-02 +5.253660584e-02 +8.685768908e-01 +5.641600017e-03 +8.682484408e-01 +2.954381763e-01 +2.042274572e-03
74000000000.000000 +2.535316324e-01 -1.987464053e-02 +1.745581682e-01 +8.601086457e-01 +1.150458778e-01 +8.680991252e-01 +2.656094324e-01 -1.718265720e-02
74500000000.000000 +2.213842357e-01 -3.373327903e-02 +2.637318676e-01 +8.434506261e-01 +2.194830578e-01 +8.529741156e-01 +2.302477467e-01 -3.551846067e-02
75000000000.000000 +1.736396921e-01 -4.826890306e-02 +3.691603183e-01 +8.124562047e-01 +3.250307007e-01 +8.253481902e-01 +1.914354615e-01 -4.032918014e-02
75500000000.000000 +1.335461002e-01 -5.380312566e-02 +4.855148984e-01 +7.563671755e-01 +4.305936774e-01 +7.875812334e-01 +1.511860983e-01 -3.394142299e-02
76000000000.000000 +8.313158789e-02 -4.034040238e-02 +5.739467834e-01 +6.981417691e-01 +5.335320751e-01 +7.277238667e-01 +1.143505537e-01 -2.109390799e-02
76500000000.000000 +4.144543002e-02 -1.814172191e-02 +6.691239643e-01 +6.110279795e-01 +6.231506163e-01 +6.545297777e-01 +7.931496742e-02 +6.099198319e-03
77000000000.000000 +1.773895894e-03 +1.328801629e-02 +7.363011265e-01 +5.262301004e-01 +7.040132081e-01 +5.687727287e-01 +5.370495697e-02 +4.028683048e-02
77500000000.000000 -2.187913851e-02 +5.389258096e-02 +7.966497799e-01 +4.226028415e-01 +7.689167277e-01 +4.661721257e-01 +3.633193533e-02 +7.857109039e-02
78000000000.000000 -3.454028533e-02 +9.970663696e-02 +8.437503372e-01 +3.073616854e-01 +8.177774543e-01 +3.616478038e-01 +2.615447142e-02 +1.237639287e-01
78500000000.000000 -3.481764120e-02 +1.529163034e-01 +8.680911715e-01 +1.988495943e-01 +8.505611560e-01 +2.496276481e-01 +2.854995153e-02 +1.675626900e-01
79000000000.000000 -1.542197083e-02 +2.001750934e-01 +8.794320297e-01 +7.100654206e-02 +8.696726929e-01 +1.378123391e-01 +4.019752471e-02 +2.090962777e-01
79500000000.000000 +1.422611826e-03 +2.459758216e-01 +8.737309444e-01 -1.728243546e-02 +8.730343230e-01 +2.663102143e-02 +6.354886338e-02 +2.499664064e-01
80000000000.000000 +4.624059189e-02 +2.840166988e-01 +8.529051423e-01 -1.416267889e-01 +8.573308070e-01 -7.502488591e-02 +9.093345733e-02 +2.826399263e-01
80500000000.000000 +7.888525994e-02 +3.134958457e-01 +8.207551318e-01 -2.278311468e-01 +8.303209903e-01 -1.763479950e-01 +1.316349022e-01 +3.064649490e-01
81000000000.000000 +1.349395386e-01 +3.337709926e-01 +7.753555040e-01 -3.237992243e-01 +7.868447861e-01 -2.703097875e-01 +1.707663370e-01 +3.241676424e-01
81500000000.000000 +1.831753463e-01 +3.392991892e-01 +7.222370722e-01 -4.041569993e-01 +7.433217863e-01 -3.576703962e-01 +2.157704893e-01 +3.270875624e-01
82000000000.000000 +2.360490745e-01 +3.293144614e-01 +6.637751668e-01 -4.794211250e-01 +6.904767361e-01 -4.360719928e-01 +2.564465696e-01 +3.254562877e-01
82500000000.000000 +2.884090190e-01 +3.175832481e-01 +5.970562470e-01 -5.442333834e-01 +6.307818775e-01 -5.021269809e-01 +2.998651301e-01 +3.143786498e-01
83000000000.000000 +3.289093183e-01 +2.968233362e-01 +5.325894795e-01 -5.994096799e-01 +5.693183879e-01 -5.620981889e-01 +3.317530077e-01 +3.016473974e-01
83500000000.000000 +3.714452344e-01 +2.590415017e-01 +4.562358175e-01 -6.542628533e-01 +5.041914665e-01 -6.154574647e-01 +3.663754041e-01 +2.750128454e-01
84000000000.000000 +4.014490236e-01 +2.247699972e-01 +3.961297262e-01 -6.875487262e-01 +4.299475313e-01 -6.644348053e-01 +3.923752405e-01 +2.490403123e-01
84500000000.000000 +4.288400430e-01 +1.727946337e-01 +3.063579681e-01 -7.305034020e-01 +3.572062932e-01 -7.048222521e-01 +4.157158745e-01 +2.130994829e-01
85000000000.000000 +4.478881936e-01 +1.272304106e-01 +2.237711532e-01 -7.597775341e-01 +2.802577301e-01 -7.396222498e-01 +4.335012438e-01 +1.742115690e-01
85500000000.000000 +4.503800124e-01 +8.213627614e-02 +1.538396879e-01 -7.805967102e-01 +1.987582241e-01 -7.677834255e-01 +4.405984434e-01 +1.367400646e-01
86000000000.000000 +4.470535409e-01 +3.909779221e-02 +6.335828630e-02 -7.987367770e-01 +1.162964918e-01 -7.861548190e-01 +4.406806749e-01 +8.831726504e-02
86500000000.000000 +4.335155484e-01 -1.577940837e-02 -2.743526627e-02 -8.053430965e-01 +2.719082377e-02 -8.019017358e-01 +4.338578504e-01 +4.683630263e-02
87000000000.000000 +4.175745634e-01 -5.415706596e-02 -1.054491015e-01 -8.026751841e-01 -6.460876332e-02 -8.094093726e-01 +4.189411672e-01 +5.349254927e-03
87500000000.000000 +3.847833490e-01 -9.652464643e-02 -2.119215293e-01 -7.927927064e-01 -1.492684201e-01 -8.064662508e-01 +3.967328927e-01 -3.340961402e-02
88000000000.000000 +3.567435623e-01 -1.271967324e-01 -2.951938451e-01 -7.755798025e-01 -2.465249487e-01 -7.922800613e-01 +3.653485409e-01 -6.888007257e-02
88500000000.000000 +3.104073682e-01 -1.437286357e-01 -3.968224640e-01 -7.438459945e-01 -3.380629494e-01 -7.693094896e-01 +3.298244282e-01 -1.014091227e-01
89000000000.000000 +2.721137968e-01 -1.623942566e-01 -4.825316321e-01 -7.017833343e-01 -4.334836702e-01 -7.263742491e-01 +2.850165015e-01 -1.193119760e-01
89500000000.000000 +2.345165431e-01 -1.606667596e-01 -5.654382689e-01 -6.505230214e-01 -5.248063271e-01 -6.767312569e-01 +2.408089938e-01 -1.348514482e-01
90000000000.000000 +1.825691033e-01 -1.502546610e-01 -6.587876057e-01 -5.731991776e-01 -6.157173797e-01 -6.143364931e-01 +1.920293349e-01 -1.350563442e-01
90500000000.000000 +1.441027109e-01 -1.389673905e-01 -7.249557231e-01 -4.996372271e-01 -6.920260100e-01 -5.344938065e-01 +1.471943508e-01 -1.226360942e-01
91000000000.000000 +1.092410905e-01 -1.091615353e-01 -7.903755603e-01 -3.986207452e-01 -7.613808423e-01 -4.477013016e-01 +1.018397130e-01 -1.051045752e-01
91500000000.000000 +8.591093367e-02 -7.789654534e-02 -8.371672238e-01 -2.988161359e-01 -8.170364926e-01 -3.491404611e-01 +6.507688282e-02 -7.916483467e-02
92000000000.000000 +6.697366811e-02 -4.202908369e-02 -8.743164881e-01 -1.817419921e-01 -8.568243337e-01 -2.425075967e-01 +4.437264390e-02 -3.885257007e-02
92500000000.000000 +6.243723988e-02 +6.887049391e-04 -8.877217386e-01 -7.734627843e-02 -8.812616439e-01 -1.322902918e-01 +2.232584555e-02 +1.962612436e-04
93000000000.000000 +6.470689069e-02 +3.661623236e-02 -8.884940564e-01 +5.160446759e-02 -8.879766275e-01 -1.521704676e-02 +2.336996875e-02 +4.646081357e-02
93500000000.000000 +8.173492130e-02 +7.452471863e-02 -8.736942431e-01 +1.545824096e-01 -8.836457318e-01 +9.773958630e-02 +2.499519864e-02 +8.775696223e-02
94000000000.000000 +1.056437984e-01 +1.029011460e-01 -8.392388797e-01 +2.711548828e-01 -8.575979728e-01 +2.030827657e-01 +4.376959055e-02 +1.241559172e-01
94500000000.000000 +1.359348349e-01 +1.206200719e-01 -7.882676520e-01 +3.816699576e-01 -8.144767871e-01 +3.101557730e-01 +7.306244813e-02 +1.553395292e-01
95000000000.000000 +1.660571368e-01 +1.451889630e-01 -7.400705494e-01 +4.551244675e-01 -7.605483282e-01 +4.127374038e-01 +1.093010531e-01 +1.854144610e-01
95500000000.000000 +2.137422918e-01 +1.504375053e-01 -6.656075195e-01 +5.484051408e-01 -7.018510841e-01 +4.927949716e-01 +1.456897588e-01 +2.014506228e-01
96000000000.000000 +2.439355869e-01 +1.527950386e-01 -5.848260854e-01 +6.180265342e-01 -6.274900068e-01 +5.684771717e-01 +1.920411882e-01 +2.016300962e-01
96500000000.000000 +2.843214728e-01 +1.426815744e-01 -4.910303311e-01 +6.854571008e-01 -5.528978033e-01 +6.325818875e-01 +2.383171839e-01 +1.995380110e-01
97000000000.000000 +3.098632024e-01 +1.193378019e-01 -4.079971696e-01 +7.286855433e-01 -4.673611677e-01 +6.895740934e-01 +2.765835986e-01 +1.857209011e-01
97500000000.000000 +3.415027154e-01 +1.017739611e-01 -3.356258886e-01 +7.585037324e-01 -3.879258097e-01 +7.303672743e-01 +3.160385941e-01 +1.669433936e-01
98000000000.000000 +3.703831321e-01 +6.783358777e-02 -2.337129767e-01 +7.870968048e-01 -2.905875725e-01 +7.643679787e-01 +3.530102218e-01 +1.339667781e-01
98500000000.000000 +3.920095618e-01 +4.872645693e-02 -1.419482463e-01 +8.006355517e-01 -2.063912511e-01 +7.841431925e-01 +3.823180109e-01 +9.523781117e-02
99000000000.000000 +4.046783070e-01 +9.196856759e-03 -5.271080591e-02 +8.076534220e-01 -1.144380877e-01 +8.011038342e-01 +4.022505802e-01 +5.368799353e-02
99500000000.000000 +4.065045986e-01 -2.197087514e-02 +3.038092166e-02 +8.042147454e-01 -2.470324795e-02 +8.042184807e-01 +4.134910907e-01 +9.281318186e-03
100000000000.000000 +4.083767385e-01 -6.339516216e-02 +1.263754799e-01 +7.903116772e-01 +6.704867775e-02 +7.948896896e-01 +4.172155927e-01 -4.244959390e-02
100500000000.000000 +4.044106106e-01 -1.047394956e-01 +2.129464862e-01 +7.712347812e-01 +1.568491337e-01 +7.838171759e-01 +4.114448031e-01 -8.601496305e-02
101000000000.000000 +3.907548400e-01 -1.392345353e-01 +3.035535201e-01 +7.425633518e-01 +2.368861385e-01 +7.614727919e-01 +3.996164427e-01 -1.338713928e-01
101500000000.000000 +3.700371418e-01 -1.625245477e-01 +3.691479111e-01 +7.173730120e-01 +3.213532656e-01 +7.334702057e-01 +3.741501330e-01 -1.703531450e-01
102000000000.000000 +3.482127026e-01 -1.951227034e-01 +4.600411481e-01 +6.650319054e-01 +4.055333745e-01 +6.927555365e-01 +3.461145866e-01 -2.105597442e-01
102500000000.000000 +3.114583055e-01 -2.236513751e-01 +5.402439399e-01 +6.096267624e-01 +4.869146663e-01 +6.475741216e-01 +3.114430531e-01 -2.381799459e-01
103000000000.000000 +2.781907087e-01 -2.337236698e-01 +6.112260734e-01 +5.388472795e-01 +5.562375540e-01 +5.879398760e-01 +2.703589548e-01 -2.536131372e-01
103500000000.000000 +2.381591853e-01 -2.416306000e-01 +6.656525939e-01 +4.828142696e-01 +6.237162815e-01 +5.331309235e-01 +2.364753847e-01 -2.627499101e-01
104000000000.000000 +1.998753523e-01 -2.488880563e-01 +7.274340401e-01 +4.017222086e-01 +6.891878535e-01 +4.527144473e-01 +1.922844413e-01 -2.643819743e-01
104500000000.000000 +1.619965711e-01 -2.509760969e-01 +7.747663308e-01 +3.192185212e-01 +7.451793979e-01 +3.785456536e-01 +1.537742160e-01 -2.522720355e-01
105000000000.000000 +1.062045423e-01 -2.238486846e-01 +8.180248007e-01 +2.120407579e-01 +7.972534557e-01 +2.809432334e-01 +1.125552865e-01 -2.392902919e-01
105500000000.000000 +9.229226042e-02 -2.012353490e-01 +8.392004504e-01 +1.236221820e-01 +8.237664203e-01 +1.851618291e-01 +8.514663589e-02 -2.064015630e-01
106000000000.000000 +5.008719278e-02 -1.726024573e-01 +8.594643349e-01 +6.785325464e-03 +8.589902509e-01 +6.801397199e-02 +6.407662005e-02 -1.769895834e-01
106500000000.000000 +3.921902672e-02 -1.236486204e-01 +8.574815005e-01 -9.242191346e-02 +8.655272812e-01 -3.583715589e-02 +4.719520063e-02 -1.354948891e-01
107000000000.000000 +3.120165127e-02 -7.800950808e-02 +8.484462405e-01 -1.861913431e-01 +8.581441882e-01 -1.535711927e-01 +4.517709912e-02 -9.241742169e-02
107500000000.000000 +3.176715068e-02 -3.637740871e-02 +8.154875841e-01 -3.092472383e-01 +8.314614517e-01 -2.692373710e-01 +4.979346418e-02 -5.230290862e-02
108000000000.000000 +7.187782211e-02 +1.392888965e-03 +7.588213474e-01 -4.297971146e-01 +7.912728936e-01 -3.648640478e-01 +6.947399087e-02 -1.056578174e-02
108500000000.000000 +7.388087156e-02 +4.394406000e-02 +6.992814678e-01 -5.133112371e-01 +7.336363780e-01 -4.633018385e-01 +1.048118124e-01 +1.869454575e-02
109000000000.000000 +1.081491970e-01 +7.604115754e-02 +6.237265681e-01 -5.978892296e-01 +6.594178231e-01 -5.492132754e-01 +1.403569610e-01 +4.228778506e-02
109500000000.000000 +1.503507908e-01 +9.018379968e-02 +5.179953454e-01 -6.857319958e-01 +5.832901950e-01 -6.348370930e-01 +1.893887315e-01 +5.460529346e-02
110000000000.000000 +1.998778100e-01 +1.035063877e-01 +4.413106568e-01 -7.283706608e-01 +5.037189269e-01 -6.801341884e-01 +2.294269273e-01 +6.161150331e-02
110500000000.000000 +2.518728516e-01 +1.038662865e-01 +3.366657733e-01 -7.681325613e-01 +4.097622801e-01 -7.338084597e-01 +2.759858907e-01 +5.529969369e-02
111000000000.000000 +2.945916870e-01 +8.367143242e-02 +2.403078115e-01 -7.946654707e-01 +3.056328394e-01 -7.617516837e-01 +3.156385718e-01 +3.515479657e-02
111500000000.000000 +3.281106203e-01 +6.419115435e-02 +1.257773596e-01 -8.079820155e-01 +2.086269015e-01 -7.853339064e-01 +3.529962361e-01 +3.870533704e-03
112000000000.000000 +3.650413694e-01 +3.440215815e-02 +5.490538879e-02 -8.071884055e-01 +1.175830325e-01 -7.978977952e-01 +3.826488400e-01 -2.064069899e-02
112500000000.000000 +3.789539217e-01 -9.308627781e-03 -4.422594809e-02 -7.949164580e-01 +2.371114628e-02 -7.990134604e-01 +3.962031569e-01 -6.532376421e-02
113000000000.000000 +3.971640131e-01 -3.430675442e-02 -1.411798369e-01 -7.777129511e-01 -6.289046458e-02 -7.819993974e-01 +4.091286297e-01 -1.023577112e-01
113500000000.000000 +4.058521168e-01 -9.276968752e-02 -2.107882163e-01 -7.479764802e-01 -1.493274027e-01 -7.680285296e-01 +4.166399495e-01 -1.446655986e-01
114000000000.000000 +3.733006237e-01 -1.279449389e-01 -3.157508290e-01 -7.083493928e-01 -2.292514107e-01 -7.383218680e-01 +4.100630048e-01 -1.765753810e-01
114500000000.000000 +3.937887519e-01 -1.773543989e-01 -3.629743324e-01 -6.835504672e-01 -3.053706942e-01 -7.120572407e-01 +3.987310797e-01 -2.156796754e-01
115000000000.000000 +3.721813902e-01 -2.273468254e-01 -4.589385324e-01 -6.228545703e-01 -3.903378482e-01 -6.706363568e-01 +3.699971505e-01 -2.755868403e-01
115500000000.000000 +3.620159749e-01 -2.397791436e-01 -5.003308440e-01 -5.893823216e-01 -4.521412923e-01 -6.273528599e-01 +3.444399893e-01 -2.906234951e-01
116000000000.000000 +3.234813889e-01 -2.540974242e-01 -5.588617029e-01 -5.375274647e-01 -5.205663346e-01 -5.838175120e-01 +3.149950857e-01 -3.189094947e-01
116500000000.000000 +2.854894741e-01 -2.947312267e-01 -6.402040827e-01 -4.477557482e-01 -5.759334149e-01 -5.165248607e-01 +2.596061539e-01 -3.402864093e-01
117000000000.000000 +2.591038267e-01 -3.254484898e-01 -6.819785397e-01 -3.969075353e-01 -6.435021175e-01 -4.616504407e-01 +2.325262979e-01 -3.486391719e-01
117500000000.000000 +1.980167097e-01 -3.285750866e-01 -7.253788424e-01 -3.209565572e-01 -6.982599979e-01 -3.819183203e-01 +1.860807468e-01 -3.556227654e-01
118000000000.000000 +1.665982463e-01 -3.154619187e-01 -7.614480483e-01 -2.379764757e-01 -7.444789606e-01 -3.134441384e-01 +1.395274548e-01 -3.456785009e-01
118500000000.000000 +1.343032705e-01 -3.145286907e-01 -7.919576988e-01 -1.476574435e-01 -7.770909173e-01 -2.164861830e-01 +9.289035185e-02 -3.309692603e-01
119000000000.000000 +1.044365126e-01 -2.839725758e-01 -8.168655128e-01 -6.668595883e-02 -8.085052725e-01 -1.353656303e-01 +5.525908777e-02 -3.049679651e-01
119500000000.000000 +6.157727879e-02 -2.557459222e-01 -8.303914194e-01 +3.698533255e-02 -8.256074223e-01 -3.461614591e-02 +2.790749116e-02 -2.693140807e-01
120000000000.000000 +2.575244564e-02 -2.348439973e-01 -8.217235555e-01 +1.521609045e-01 -8.355352255e-01 +6.590705346e-02 +1.058458330e-02 -2.335090958e-01
120500000000.000000 -1.421082475e-02 -2.045729435e-01 -8.083479781e-01 +2.770853187e-01 -8.103292524e-01 +1.846870238e-01 -6.676479922e-03 -1.908056375e-01
121000000000.000000 +9.230064528e-03 -1.561079575e-01 -7.751007655e-01 +3.542977560e-01 -8.000470010e-01 +2.857754280e-01 -1.242838366e-02 -1.429762725e-01
121500000000.000000 +6.226679750e-03 -1.110652716e-01 -7.168946187e-01 +4.623801569e-01 -7.567294333e-01 +3.896218487e-01 -6.787818426e-03 -1.031842195e-01
122000000000.000000 +2.232362322e-02 -7.502092994e-02 -6.622234144e-01 +5.415088358e-01 -7.042166771e-01 +4.818326037e-01 +1.144863808e-02 -6.001383775e-02
122500000000.000000 +5.386993322e-02 -6.796977572e-02 -5.601727988e-01 +6.486910014e-01 -6.345112956e-01 +5.654682179e-01 +3.462985429e-02 -2.943110780e-02
123000000000.000000 +5.728606004e-02 -2.587235804e-03 -4.803046377e-01 +6.976058714e-01 -5.440102066e-01 +6.473404012e-01 +7.098614058e-02 -1.126537611e-02
123500000000.000000 +1.379690253e-01 -8.824059611e-03 -3.812555642e-01 +7.588134144e-01 -4.596685851e-01 +7.210440980e-01 +1.157483993e-01 +1.456250564e-02
124000000000.000000 +1.388972342e-01 -1.873994750e-03 -3.087959356e-01 +8.033087062e-01 -3.622444204e-01 +7.576510200e-01 +1.496766392e-01 +3.553215890e-03
124500000000.000000 +1.668632065e-01 -8.515117328e-04 -2.102310800e-01 +8.195623480e-01 -2.661532654e-01 +7.969986002e-01 +1.841102172e-01 -8.277135175e-04
125000000000.000000 +2.183200047e-01 -2.064291199e-02 -8.284405451e-02 +8.260117164e-01 -1.676538366e-01 +8.138133797e-01 +2.176116303e-01 -2.080328702e-02
125500000000.000000 +2.484037291e-01 -2.109103429e-02 +2.267899942e-03 +8.162464177e-01 -5.082401817e-02 +8.190113982e-01 +2.398607726e-01 -4.710559666e-02
126000000000.000000 +2.743395203e-01 -4.725737645e-02 +1.024022041e-01 +8.188349319e-01 +5.656628792e-02 +8.098152554e-01 +2.665916771e-01 -8.076143514e-02
126500000000.000000 +2.972156049e-01 -8.039673409e-02 +1.829803452e-01 +7.939864309e-01 +1.508336052e-01 +8.073368264e-01 +2.839437372e-01 -1.096373311e-01
127000000000.000000 +2.968643055e-01 -1.280874851e-01 +2.758890603e-01 +7.593461775e-01 +2.494826608e-01 +7.564880638e-01 +2.837480033e-01 -1.437131803e-01
127500000000.000000 +3.093110811e-01 -1.681481493e-01 +3.754507866e-01 +7.057305298e-01 +3.167867677e-01 +7.317297475e-01 +2.802292590e-01 -1.900087471e-01
128000000000.000000 +3.009510259e-01 -1.883281300e-01 +4.490837867e-01 +6.470949411e-01 +4.026676672e-01 +6.855742479e-01 +2.659297093e-01 -2.274858480e-01
128500000000.000000 +2.986946268e-01 -2.318629498e-01 +5.217615170e-01 +5.726687302e-01 +4.694052189e-01 +6.374390271e-01 +2.594913937e-01 -2.607991627e-01
129000000000.000000 +2.653962698e-01 -2.541241571e-01 +5.785687191e-01 +5.226128034e-01 +5.308321316e-01 +5.743637422e-01 +2.318303818e-01 -2.874095007e-01
129500000000.000000 +2.471846429e-01 -2.888355480e-01 +6.493091041e-01 +4.427133694e-01 +5.959530459e-01 +5.178565049e-01 +1.918825172e-01 -3.040022013e-01
130000000000.000000 +2.190845711e-01 -3.167105303e-01 +6.976651032e-01 +3.707549514e-01 +6.418013394e-01 +4.501141160e-01 +1.596432869e-01 -3.318678728e-01
130500000000.000000 +1.871958329e-01 -3.216632729e-01 +7.270067741e-01 +2.929398516e-01 +6.876972012e-01 +3.706441179e-01 +1.281740460e-01 -3.565758935e-01
131000000000.000000 +1.545173528e-01 -3.232416206e-01 +7.479069036e-01 +2.071416537e-01 +7.397852066e-01 +2.705827554e-01 +1.067597422e-01 -3.569082617e-01
131500000000.000000 +9.603881529e-02 -3.392036052e-01 +7.748162720e-01 +1.083799843e-01 +7.665574588e-01 +1.880494676e-01 +6.798718487e-02 -3.406429103e-01
132000000000.000000 +7.844863577e-02 -3.481871057e-01 +7.876726720e-01 +1.665487924e-02 +7.879444818e-01 +9.546528744e-02 +1.860113576e-02 -3.223958609e-01
132500000000.000000 +5.284773636e-02 -3.452030787e-01 +8.089290137e-01 -5.801697432e-02 +7.931271818e-01 +1.863636324e-02 -2.346956589e-02 -3.106356304e-01
133000000000.000000 +3.563654688e-02 -3.000799577e-01 +7.815192899e-01 -1.337848554e-01 +7.911272519e-01 -8.255123006e-02 -6.079145609e-02 -3.216251307e-01
133500000000.000000 +1.240169529e-03 -2.865599459e-01 +7.520032336e-01 -2.504532669e-01 +7.859652761e-01 -1.632137704e-01 -6.017821811e-02 -2.867425223e-01
134000000000.000000 -5.303768657e-02 -2.767511691e-01 +7.390649602e-01 -3.630650820e-01 +7.554041420e-01 -2.758900722e-01 -8.151579534e-02 -2.313816622e-01
134500000000.000000 -5.047274637e-02 -2.230431987e-01 +6.918700818e-01 -4.704204858e-01 +7.669099908e-01 -3.637356146e-01 -1.161282616e-01 -1.799969273e-01
135000000000.000000 -3.390885965e-02 -1.976277052e-01 +6.518151387e-01 -5.219859334e-01 +6.862443928e-01 -4.407929183e-01 -1.181442313e-01 -1.584094082e-01
135500000000.000000 -2.882092586e-02 -1.471991003e-01 +5.877071930e-01 -5.926275216e-01 +6.309611195e-01 -5.399954838e-01 -1.027695476e-01 -1.364253529e-01
136000000000.000000 -4.696621728e-02 -1.032602474e-01 +4.680662173e-01 -6.925954495e-01 +5.551049542e-01 -6.268158636e-01 -7.158598188e-02 -9.303277144e-02
136500000000.000000 -6.277886342e-03 -1.116147183e-01 +4.021714602e-01 -7.355941147e-01 +4.809469435e-01 -6.870757016e-01 -3.947003560e-02 -6.348246602e-02
137000000000.000000 -2.220041328e-02 -9.577973150e-02 +2.993689290e-01 -7.873079465e-01 +3.872851350e-01 -7.533514528e-01 -1.188091999e-02 -3.846427634e-02
137500000000.000000 +4.259023056e-02 -5.280355602e-02 +1.926920528e-01 -8.168860371e-01 +2.777486796e-01 -7.915102050e-01 +3.013431859e-02 -3.033868444e-02
138000000000.000000 +7.154260020e-02 -9.276159885e-02 +8.740012012e-02 -8.388219167e-01 +1.767619976e-01 -8.190625654e-01 +6.788619157e-02 -2.793269315e-02
138500000000.000000 +1.175516243e-01 -7.004974101e-02 -1.222574634e-02 -8.338454174e-01 +6.422554558e-02 -8.342187593e-01 +1.048671388e-01 -3.189750204e-02
139000000000.000000 +1.105048843e-01 -7.473760281e-02 -1.184449840e-01 -8.219093924e-01 -3.943360587e-02 -8.288488292e-01 +1.428908555e-01 -5.119145404e-02
139500000000.000000 +1.439116504e-01 -1.165456811e-01 -2.257593475e-01 -7.983595082e-01 -1.450598639e-01 -8.098166343e-01 +1.663246345e-01 -8.754714915e-02
140000000000.000000 +2.263761102e-01 -1.219686924e-01 -3.123284076e-01 -7.481957534e-01 -2.349605916e-01 -7.724830424e-01 +1.995760277e-01 -1.122416924e-01
140500000000.000000 +1.986329167e-01 -1.863178597e-01 -4.153682375e-01 -7.045552876e-01 -3.281222823e-01 -7.407528233e-01 +2.133129932e-01 -1.508700460e-01
141000000000.000000 +1.567195104e-01 -1.390369926e-01 -4.992454119e-01 -6.263478587e-01 -4.158218739e-01 -6.820435753e-01 +2.102227668e-01 -1.740423614e-01
141500000000.000000 +1.986398117e-01 -2.379377387e-01 -5.551551098e-01 -5.727591108e-01 -4.839320747e-01 -6.214109394e-01 +2.072060766e-01 -2.242864893e-01
142000000000.000000 +2.234195887e-01 -2.444138363e-01 -6.003150172e-01 -5.078890695e-01 -5.440302039e-01 -5.503182031e-01 +2.083675054e-01 -2.516256639e-01
142500000000.000000 +1.918900614e-01 -3.059187895e-01 -6.780440852e-01 -4.011703123e-01 -6.083843612e-01 -4.892761334e-01 +1.875249033e-01 -3.004554175e-01
143000000000.000000 +1.777382730e-01 -3.726425698e-01 -7.066673803e-01 -3.283109435e-01 -6.501485965e-01 -4.189853125e-01 +1.589126990e-01 -3.240087895e-01
143500000000.000000 +1.280319557e-01 -3.791752562e-01 -7.395412556e-01 -2.269893112e-01 -6.903853648e-01 -3.362038987e-01 +1.243920358e-01 -3.463768653e-01
144000000000.000000 +1.063684277e-01 -3.961180379e-01 -7.586874675e-01 -1.690666385e-01 -7.244128160e-01 -2.561765281e-01 +9.316738543e-02 -3.696004166e-01
144500000000.000000 +6.640565543e-02 -3.982242782e-01 -7.692604917e-01 -6.366961269e-02 -7.415757250e-01 -1.610190390e-01 +5.044606619e-02 -3.856637329e-01
145000000000.000000 +4.708993331e-03 -4.011670894e-01 -7.617523213e-01 +7.875637630e-03 -7.550072609e-01 -7.858485835e-02 +1.607728886e-02 -3.761899697e-01
145500000000.000000 -1.881598149e-02 -4.040081803e-01 -7.561716753e-01 +8.990215663e-02 -7.514442478e-01 +6.761563000e-04 -2.853270061e-02 -3.605306026e-01
146000000000.000000 -4.988144224e-02 -4.027739084e-01 -7.472660277e-01 +1.760650722e-01 -7.557243714e-01 +8.769454122e-02 -7.871749513e-02 -3.424267300e-01
146500000000.000000 -7.447231349e-02 -3.632396904e-01 -7.373389524e-01 +2.293458356e-01 -7.483485028e-01 +1.575021790e-01 -8.470591454e-02 -3.362167706e-01
147000000000.000000 -8.896083287e-02 -3.797270147e-01 -6.979411271e-01 +3.562261029e-01 -7.295824894e-01 +2.617902678e-01 -1.356779703e-01 -3.128955041e-01
147500000000.000000 -1.052404929e-01 -2.933105116e-01 -6.554363771e-01 +4.548309912e-01 -7.128562500e-01 +3.432411637e-01 -1.577045633e-01 -2.820145530e-01
148000000000.000000 -1.347393804e-01 -3.002132867e-01 -6.270814462e-01 +4.866213606e-01 -6.594855458e-01 +4.198764336e-01 -1.673273402e-01 -2.501442167e-01
148500000000.000000 -1.548428600e-01 -2.656416294e-01 -5.563118244e-01 +5.750361397e-01 -6.138038268e-01 +5.025987025e-01 -1.832437440e-01 -2.166312663e-01
149000000000.000000 -1.681392522e-01 -2.326964563e-01 -4.883676625e-01 +6.344824968e-01 -5.496473634e-01 +5.709095156e-01 -1.809673085e-01 -1.772636193e-01
149500000000.000000 -1.925951839e-01 -2.187631716e-01 -4.022814095e-01 +7.025643207e-01 -4.724872996e-01 +6.468442620e-01 -1.865652495e-01 -1.509888923e-01
150000000000.000000 -1.436342857e-01 -1.744279928e-01 -3.247336925e-01 +7.491675266e-01 -4.053080180e-01 +6.956430214e-01 -1.680543857e-01 -1.111218271e-01
