!Keysight Technologies,E5080B,MY59500459,A.17.35.16
!Date: Friday, August 22, 2025 11:23:45
!Correction: S11(C  2-Port  ) 
!S21(C  2-Port  ) 
!S12(C  2-Port  ) 
!S22(C  2-Port  ) 
!S2P File: Measurements: S11, S21, S12, S22:
# Hz S  dB   R 50
10000000 -52.531223 -6.5322671 -0.023223713 -1.0835996 -0.024522021 -1.0711409 -50.52747 -10.884639
18995000 -51.570724 -10.044213 -0.024550658 -2.0524838 -0.023849392 -2.0412397 -50.492596 -15.247984
27990000 -50.879089 -13.881867 -0.025178092 -3.0040467 -0.026038421 -3.0111241 -50.028702 -15.512775
36985000 -50.166248 -18.001732 -0.026749676 -3.9752712 -0.026505373 -3.9758408 -49.844479 -19.684555
45980000 -50.041904 -23.39263 -0.027701238 -4.9285698 -0.0282692 -4.9308958 -49.059361 -24.527536
54975000 -49.927513 -28.544714 -0.030263128 -5.8984313 -0.030568121 -5.8896399 -48.501438 -27.858711
63970000 -49.334965 -33.921234 -0.03258162 -6.8582859 -0.031920001 -6.8478217 -47.950771 -32.993168
72965000 -48.504719 -37.653973 -0.034211461 -7.8190846 -0.033276211 -7.8062301 -47.220474 -39.17453
81960000 -47.520336 -43.700954 -0.035582483 -8.7707911 -0.035307672 -8.758893 -46.19112 -44.160259
90955000 -46.546516 -47.390865 -0.037403788 -9.7225494 -0.037159406 -9.7134533 -45.441399 -47.330631
99950000 -46.138447 -52.406048 -0.039367173 -10.67285 -0.038004879 -10.667398 -44.686462 -49.462803
108945000 -45.662064 -55.53046 -0.041356269 -11.62326 -0.040782154 -11.616148 -44.103138 -51.096348
117940000 -45.188431 -58.302261 -0.043474395 -12.571965 -0.042480424 -12.570952 -43.673058 -52.726582
126935000 -44.664986 -61.33353 -0.044460226 -13.525706 -0.04408548 -13.519021 -43.0695 -55.349476
135930000 -44.081238 -63.505188 -0.046418957 -14.47785 -0.045613959 -14.471901 -42.628052 -58.611324
144925000 -43.473564 -65.73838 -0.048140898 -15.427017 -0.046826351 -15.419282 -41.987267 -62.17337
153920000 -42.929157 -67.26635 -0.0500133 -16.37747 -0.049253456 -16.370426 -41.500744 -63.727505
162915000 -42.517567 -68.9049 -0.051543869 -17.329956 -0.050426271 -17.317621 -41.089348 -64.167656
171910000 -42.444599 -70.118019 -0.053569742 -18.275736 -0.052891288 -18.268393 -40.762924 -63.837276
180905000 -42.306206 -71.530647 -0.056773447 -19.225853 -0.05483862 -19.218134 -40.433514 -64.353958
189900000 -41.870293 -73.860596 -0.058058217 -20.181219 -0.056988511 -20.172253 -40.259365 -66.464561
198895000 -41.140072 -76.289009 -0.059070718 -21.128059 -0.058485858 -21.125675 -39.843311 -69.946922
207890000 -40.395889 -78.403862 -0.06131722 -22.078104 -0.060088966 -22.073378 -39.341045 -73.210403
216885000 -39.680199 -80.68187 -0.063008048 -23.02673 -0.062278487 -23.022854 -38.807152 -75.950356
225880000 -39.157101 -82.29155 -0.064707942 -23.974474 -0.064050071 -23.969522 -38.278412 -78.085381
234875000 -38.941441 -83.846939 -0.066004522 -24.915655 -0.066197962 -24.913507 -37.980103 -79.000603
243870000 -38.879372 -85.547691 -0.068588845 -25.861519 -0.067957737 -25.85088 -37.632698 -78.861115
252865000 -38.694729 -87.034492 -0.070256986 -26.80316 -0.069406793 -26.797039 -37.44442 -79.271637
261860000 -38.46574 -88.694901 -0.071821555 -27.745396 -0.071144186 -27.738972 -37.190609 -80.832954
270855000 -38.035404 -90.423004 -0.07361573 -28.686207 -0.073586769 -28.679897 -36.830471 -82.816292
279850000 -37.634296 -92.551361 -0.07552892 -29.638388 -0.075179137 -29.625904 -36.365257 -84.925568
288845000 -37.311432 -95.178314 -0.076951519 -30.583439 -0.076749951 -30.578384 -35.895512 -85.727409
297840000 -37.059376 -98.111755 -0.079278469 -31.531952 -0.078725412 -31.521959 -35.469799 -86.387367
306835000 -36.914806 -100.8543 -0.080626875 -32.475643 -0.080241345 -32.473114 -35.155659 -86.407211
315830000 -36.686119 -102.76859 -0.082620449 -33.428837 -0.081602447 -33.426765 -34.918896 -87.16552
324825000 -36.312859 -103.69193 -0.083748743 -34.373493 -0.083171628 -34.371449 -34.774502 -88.905243
333820000 -35.802402 -104.12977 -0.08524584 -35.319901 -0.084891051 -35.315765 -34.588142 -92.234886
342815000 -35.312439 -104.81239 -0.087469742 -36.268887 -0.086377457 -36.262959 -34.288704 -95.495308
351810000 -34.87838 -106.10568 -0.08876732 -37.211163 -0.087843232 -37.203876 -33.909256 -97.944412
360805000 -34.600788 -108.25095 -0.090401478 -38.149975 -0.090154886 -38.143974 -33.489021 -99.09623
369800000 -34.502033 -110.98788 -0.092088595 -39.094994 -0.091965385 -39.087898 -33.100819 -99.173248
378795000 -34.425503 -113.44601 -0.093422465 -40.03569 -0.093102448 -40.029808 -32.865391 -99.053375
387790000 -34.284622 -115.56235 -0.095500261 -40.979504 -0.094886132 -40.972897 -32.639858 -99.502655
396785000 -34.015335 -117.21667 -0.096878588 -41.923386 -0.09668272 -41.915344 -32.359974 -100.7781
405780000 -33.691849 -119.29252 -0.098783515 -42.866219 -0.097844057 -42.866737 -32.075592 -102.61983
414775000 -33.235477 -121.04729 -0.10020077 -43.816868 -0.099344701 -43.810303 -31.674051 -104.50794
423770000 -32.802345 -123.51009 -0.10156735 -44.757496 -0.1013612 -44.754627 -31.266972 -106.01236
432765000 -32.477779 -126.19788 -0.10334417 -45.70417 -0.10304728 -45.697666 -30.877249 -106.6839
441760000 -32.315006 -127.97496 -0.10465818 -46.64743 -0.10428589 -46.644352 -30.650658 -107.5028
450755000 -32.174946 -129.04398 -0.1064681 -47.587009 -0.1058808 -47.58144 -30.540174 -108.35696
459750000 -32.061253 -129.79173 -0.10801126 -48.527916 -0.10771193 -48.523499 -30.451746 -109.81944
468745000 -31.870762 -130.30821 -0.10901504 -49.473785 -0.10916395 -49.468674 -30.335361 -111.65575
477740000 -31.599058 -131.29332 -0.1103828 -50.416042 -0.1106154 -50.410896 -30.120821 -113.32862
486735000 -31.268473 -133.23999 -0.11270197 -51.364223 -0.11218449 -51.358383 -29.781096 -114.54349
495730000 -30.981209 -135.91605 -0.11406664 -52.315758 -0.11386255 -52.308315 -29.446211 -115.4415
504725000 -30.741997 -138.52924 -0.11477067 -53.262726 -0.11501839 -53.256596 -29.152592 -115.93987
513720000 -30.567953 -140.55699 -0.11698607 -54.205318 -0.11678025 -54.196636 -28.959608 -116.4315
522715000 -30.453726 -141.50053 -0.11806694 -55.149452 -0.11815259 -55.145294 -28.842993 -117.60477
531710000 -30.239107 -142.0424 -0.11903898 -56.094826 -0.11966213 -56.092728 -28.716721 -119.31547
540705000 -29.944508 -142.58156 -0.1203495 -57.033897 -0.12076947 -57.030968 -28.478012 -121.22678
549700000 -29.577152 -144.15762 -0.12352803 -57.976379 -0.12309926 -57.972481 -28.197134 -122.90127
558695000 -29.237499 -146.21774 -0.1247605 -58.922001 -0.12450396 -58.915852 -27.871471 -124.15049
567690000 -29.020325 -148.23524 -0.12623157 -59.863148 -0.1254231 -59.862434 -27.61659 -124.80231
576685000 -28.923439 -150.235 -0.12753625 -60.803635 -0.12795319 -60.800564 -27.468317 -125.19044
585680000 -28.914106 -151.58386 -0.12851229 -61.748188 -0.12916026 -61.744316 -27.415379 -125.72743
594675000 -28.885611 -152.49446 -0.12999129 -62.695255 -0.12987261 -62.687599 -27.36989 -126.75685
603670000 -28.731838 -153.21663 -0.13214189 -63.63451 -0.1313542 -63.631771 -27.255083 -128.17284
612665000 -28.428205 -154.32784 -0.13327324 -64.583366 -0.13288809 -64.57486 -27.052795 -129.90961
621660000 -28.075794 -156.18884 -0.13501263 -65.535622 -0.13417394 -65.532768 -26.780684 -131.39612
630655000 -27.758039 -158.18208 -0.13605872 -66.483482 -0.13594334 -66.479881 -26.485325 -132.42119
639650000 -27.553459 -159.84366 -0.1383839 -67.427826 -0.13781497 -67.419075 -26.279432 -133.22964
648645000 -27.495277 -160.82864 -0.13973822 -68.376419 -0.13973768 -68.370102 -26.191658 -134.01125
657640000 -27.450129 -161.4585 -0.14043091 -69.320206 -0.14065309 -69.316635 -26.155855 -135.09984
666635000 -27.365788 -161.74754 -0.14221621 -70.25985 -0.14169708 -70.255028 -26.095867 -136.53578
675630000 -27.148689 -162.6476 -0.14373092 -71.205185 -0.14352597 -71.199432 -25.940004 -138.3239
684625000 -26.82929 -164.0939 -0.14433488 -72.152176 -0.14490813 -72.142174 -25.681473 -140.02457
693620000 -26.512611 -166.03787 -0.14719681 -73.092743 -0.14662647 -73.085869 -25.382133 -141.04112
702615000 -26.340132 -168.06569 -0.14916895 -74.03463 -0.14877783 -74.029602 -25.166452 -141.43178
711610000 -26.265184 -169.85612 -0.15030475 -74.984314 -0.14992987 -74.979523 -25.054502 -141.71899
720605000 -26.262064 -170.99332 -0.15189736 -75.929497 -0.15013218 -75.924011 -25.016754 -142.10295
729600000 -26.216011 -171.75322 -0.15326796 -76.869888 -0.15210296 -76.86824 -25.008614 -143.24197
738595000 -26.049036 -172.40468 -0.15427662 -77.819649 -0.15434502 -77.815788 -24.920595 -145.04727
747590000 -25.785501 -173.26854 -0.15586719 -78.771286 -0.15565388 -78.766251 -24.730789 -147.12889
756585000 -25.440214 -174.65598 -0.15854047 -79.714241 -0.15708043 -79.707359 -24.459728 -148.69272
765580000 -25.217827 -176.22345 -0.16082506 -80.66288 -0.15958741 -80.656738 -24.218487 -149.54872
774575000 -25.107546 -177.8217 -0.16081996 -81.608864 -0.1610714 -81.605698 -24.060598 -149.96927
783570000 -25.104666 -179.08 -0.16276577 -82.552483 -0.1616877 -82.550835 -24.011749 -150.29057
792565000 -25.087927 -179.98376 -0.16422263 -83.501038 -0.1631114 -83.4944 -24.008677 -151.01181
801560000 -24.988495 179.30835 -0.16601558 -84.447258 -0.16482754 -84.449631 -23.970657 -152.61163
810555000 -24.787821 178.52499 -0.16703232 -85.402039 -0.16644968 -85.395805 -23.836 -154.57857
819550000 -24.502228 177.41537 -0.16945085 -86.343018 -0.16875513 -86.339752 -23.595245 -156.12495
828545000 -24.248358 175.78833 -0.17128071 -87.291756 -0.17127641 -87.288956 -23.328257 -157.16347
837540000 -24.09161 174.04918 -0.17254621 -88.244072 -0.17253193 -88.237358 -23.142633 -157.42982
846535000 -24.053453 172.36618 -0.17359628 -89.18766 -0.1739247 -89.179794 -23.051075 -157.61737
855530000 -24.034718 171.16029 -0.17641555 -90.129433 -0.17506672 -90.122124 -23.053963 -158.12329
864525000 -23.980211 170.45639 -0.17694587 -91.082756 -0.17640477 -91.077927 -23.057848 -159.54166
873520000 -23.843681 169.97835 -0.17806415 -92.034386 -0.17765801 -92.030281 -23.005161 -161.48016
882515000 -23.614872 169.31952 -0.18028267 -92.97644 -0.17971148 -92.972214 -22.825705 -163.46577
891510000 -23.389376 168.13216 -0.18329909 -93.925385 -0.18222211 -93.927475 -22.595011 -164.75897
900505000 -23.20841 166.48891 -0.18405116 -94.879578 -0.1843134 -94.873207 -22.374174 -165.2957
909500000 -23.110407 164.7327 -0.18624735 -95.823303 -0.1859877 -95.819374 -22.238855 -165.38039
918495000 -23.080162 163.22508 -0.18811052 -96.76931 -0.18757533 -96.759407 -22.197634 -165.65265
927490000 -23.035969 162.14374 -0.18872526 -97.724586 -0.18843356 -97.716408 -22.205521 -166.69434
936485000 -22.946203 161.54527 -0.18975924 -98.674461 -0.18941472 -98.667198 -22.192289 -168.43039
945480000 -22.772564 161.1161 -0.19286261 -99.616768 -0.1918904 -99.614532 -22.058292 -170.40707
954475000 -22.556047 160.23996 -0.19440457 -100.57618 -0.19453479 -100.56926 -21.864536 -172.01875
963470000 -22.357876 158.88161 -0.19642508 -101.52319 -0.19599339 -101.52055 -21.627615 -172.85774
972465000 -22.220804 157.09334 -0.19871154 -102.46574 -0.19841403 -102.45655 -21.454121 -173.07465
981460000 -22.136213 155.4411 -0.20066005 -103.41241 -0.20040496 -103.40853 -21.373035 -173.31094
990455000 -22.122429 154.2135 -0.20138557 -104.36736 -0.20083545 -104.36056 -21.383764 -173.98697
999450000 -22.082424 153.46611 -0.2021793 -105.313 -0.20223841 -105.30968 -21.405235 -175.36919
1008445000 -21.9772 153.10963 -0.2044905 -106.26085 -0.20372294 -106.25961 -21.359127 -177.24759
1017440000 -21.811712 152.51086 -0.20687351 -107.22043 -0.20631781 -107.21974 -21.206871 -179.00233
1026435000 -21.62224 151.36038 -0.20851442 -108.17508 -0.20806633 -108.1663 -20.98938 179.86659
1035430000 -21.448868 149.67976 -0.21225503 -109.11617 -0.21077982 -109.11099 -20.783651 179.37126
1044425000 -21.330467 147.86304 -0.21435349 -110.06268 -0.21318668 -110.06126 -20.662285 179.1167
1053420000 -21.279457 146.37019 -0.21481366 -111.02068 -0.21418841 -111.01271 -20.635448 178.67181
1062415000 -21.239988 145.5098 -0.21590583 -111.96513 -0.21544172 -111.96084 -20.660095 177.51239
1071410000 -21.18889 145.09123 -0.2179233 -112.91666 -0.21706003 -112.91499 -20.657518 175.79694
1080405000 -21.0767 144.73203 -0.2191069 -113.88043 -0.21866533 -113.87743 -20.561028 173.93109
1089400000 -20.897503 143.87135 -0.22154018 -114.83952 -0.22074646 -114.83283 -20.365685 172.50565
1098395000 -20.705582 142.48338 -0.22500412 -115.78052 -0.22430572 -115.77104 -20.151033 171.74673
1107390000 -20.565567 140.73914 -0.22788918 -116.72987 -0.226842 -116.72594 -19.986376 171.44632
1116385000 -20.487024 139.01448 -0.22843947 -117.67963 -0.22802339 -117.67658 -19.927706 171.10715
1125380000 -20.460772 137.92752 -0.2300255 -118.62749 -0.22953014 -118.61965 -19.944799 170.34222
1134375000 -20.446417 137.36055 -0.23164515 -119.58133 -0.23101802 -119.5761 -19.972303 168.98097
1143370000 -20.369028 136.89922 -0.23297261 -120.54781 -0.23218963 -120.5415 -19.926083 167.19521
1152365000 -20.2332 136.33336 -0.23586296 -121.50182 -0.23406689 -121.49669 -19.787323 165.62657
1161360000 -20.039728 135.17229 -0.23917945 -122.4489 -0.23741043 -122.44371 -19.58123 164.45714
1170355000 -19.867792 133.55476 -0.24189001 -123.40223 -0.24002223 -123.3977 -19.393551 163.85808
1179350000 -19.759598 131.87228 -0.24281189 -124.35209 -0.24241251 -124.3472 -19.290558 163.46959
1188345000 -19.719839 130.485 -0.24387468 -125.29478 -0.24353299 -125.29061 -19.274073 162.90665
1197340000 -19.724785 129.69064 -0.24469784 -126.2517 -0.245084 -126.25046 -19.304693 161.87357
1206335000 -19.68096 129.25795 -0.24654874 -127.21778 -0.24610984 -127.21591 -19.30094 160.3567
1215330000 -19.577723 128.79189 -0.24918659 -128.17802 -0.2482705 -128.17125 -19.206478 158.67375
1224325000 -19.404232 127.87348 -0.25287271 -129.13063 -0.25195608 -129.12691 -19.034653 157.23138
1233320000 -19.231161 126.53046 -0.25567666 -130.08936 -0.25473449 -130.08534 -18.84561 156.33458
1242315000 -19.099588 124.8566 -0.25686482 -131.03973 -0.25641143 -131.03355 -18.709515 155.85402
1251310000 -19.035334 123.3579 -0.25873026 -131.97673 -0.25895062 -131.97646 -18.650839 155.43626
1260305000 -19.024061 122.3242 -0.26054728 -132.94089 -0.26027024 -132.93381 -18.672258 154.7516
1269300000 -19.021879 121.66011 -0.26149374 -133.90576 -0.26101458 -133.89723 -18.695892 153.5359
1278295000 -18.945667 121.20657 -0.26368821 -134.86746 -0.26306826 -134.86125 -18.655098 151.93025
1287290000 -18.811701 120.55025 -0.26693213 -135.82813 -0.2652401 -135.81999 -18.524387 150.28026
1296285000 -18.647247 119.45378 -0.27003664 -136.78532 -0.26840672 -136.77953 -18.350311 149.03871
1305280000 -18.493166 117.94387 -0.27228308 -137.73325 -0.27094051 -137.72989 -18.186686 148.27626
1314275000 -18.408037 116.38216 -0.27461922 -138.67412 -0.27351439 -138.67392 -18.098267 147.85828
1323270000 -18.384426 115.12699 -0.27537018 -139.63104 -0.27469671 -139.6281 -18.077587 147.41072
1332265000 -18.386461 114.30666 -0.27639848 -140.59854 -0.27524883 -140.59393 -18.111591 146.548
1341260000 -18.354769 113.7344 -0.27835098 -141.55809 -0.27747342 -141.55411 -18.111528 145.09552
1350255000 -18.240181 113.19524 -0.28185531 -142.52118 -0.2797839 -142.52382 -18.04089 143.32961
1359250000 -18.089008 112.32665 -0.2841731 -143.49324 -0.28361571 -143.48663 -17.886305 141.82558
1368245000 -17.92889 111.04571 -0.28724709 -144.43546 -0.28592616 -144.43642 -17.709925 140.78806
1377240000 -17.828718 109.54552 -0.28942305 -145.38197 -0.28897759 -145.38269 -17.584127 140.3345
1386235000 -17.782381 108.13107 -0.29103899 -146.33838 -0.29094905 -146.33986 -17.525469 140.03467
1395230000 -17.784018 107.02011 -0.29232326 -147.30263 -0.29173079 -147.29793 -17.543421 139.46642
1404225000 -17.76556 106.31854 -0.29368216 -148.2648 -0.2936143 -148.25934 -17.576008 138.33195
1413220000 -17.696505 105.81837 -0.29654697 -149.23279 -0.29565075 -149.22723 -17.554365 136.68597
1422215000 -17.569027 105.10306 -0.2986885 -150.2021 -0.29795098 -150.20285 -17.44869 134.88077
1431210000 -17.413906 104.08864 -0.30126694 -151.15578 -0.30090043 -151.15211 -17.289827 133.57477
1440205000 -17.303448 102.74213 -0.30527413 -152.10254 -0.30429891 -152.10048 -17.128815 132.85127
1449200000 -17.239176 101.30587 -0.30725631 -153.06363 -0.30654621 -153.05663 -17.035734 132.54176
1458195000 -17.226198 100.02081 -0.30839586 -154.01993 -0.30731326 -154.0134 -17.026863 132.23076
1467190000 -17.215868 99.135727 -0.31018126 -154.98079 -0.3092483 -154.97537 -17.061678 131.35866
1476185000 -17.177771 98.521492 -0.31199241 -155.9507 -0.31087887 -155.94736 -17.085226 129.85455
1485180000 -17.080156 97.947632 -0.31377342 -156.9295 -0.31252035 -156.92403 -17.027109 128.0511
1494175000 -16.946558 97.143425 -0.31637949 -157.88094 -0.31644577 -157.87756 -16.890751 126.41825
1503170000 -16.821899 95.981392 -0.3210004 -158.83997 -0.32011947 -158.83153 -16.718254 125.48792
1512165000 -16.737919 94.568565 -0.32336903 -159.79976 -0.32233426 -159.79247 -16.595926 125.10387
1521160000 -16.698442 93.194145 -0.32524121 -160.7516 -0.32430559 -160.74809 -16.547249 124.88245
1530155000 -16.691803 92.118172 -0.32749996 -161.70686 -0.32526857 -161.70456 -16.575962 124.29499
1539150000 -16.673025 91.308693 -0.32787064 -162.68094 -0.32674968 -162.68195 -16.620758 123.00687
1548145000 -16.604538 90.768219 -0.32975063 -163.65649 -0.32824865 -163.65446 -16.612207 121.24266
1557140000 -16.507475 90.144836 -0.33252311 -164.62108 -0.33155796 -164.61842 -16.50902 119.5395
1566135000 -16.390215 89.16362 -0.33640903 -165.58104 -0.3355009 -165.57794 -16.351767 118.29079
1575130000 -16.288633 87.906761 -0.33934358 -166.55028 -0.33798575 -166.54138 -16.207048 117.73182
1584125000 -16.227339 86.514336 -0.34175697 -167.50121 -0.3411454 -167.4967 -16.126417 117.44733
1593120000 -16.210825 85.290558 -0.34379008 -168.45451 -0.34243166 -168.453 -16.134291 117.02861
1602115000 -16.20278 84.348557 -0.34365755 -169.42984 -0.34286502 -169.42513 -16.180368 116.01553
1611110000 -16.166374 83.707565 -0.34496027 -170.39679 -0.3439509 -170.39786 -16.201042 114.44385
1620105000 -16.091543 83.127525 -0.34686282 -171.36513 -0.34700274 -171.36459 -16.153133 112.68468
1629100000 -15.988311 82.343567 -0.35178071 -172.34027 -0.35056096 -172.33629 -16.016113 111.27089
1638095000 -15.890387 81.229477 -0.35426253 -173.306 -0.3538084 -173.30392 -15.862195 110.44372
1647090000 -15.812791 79.849762 -0.35804707 -174.26067 -0.35664994 -174.25522 -15.751191 110.04579
1656085000 -15.778896 78.519341 -0.3606436 -175.21153 -0.35879517 -175.21271 -15.724553 109.69528
1665080000 -15.767891 77.43306 -0.36053079 -176.18416 -0.35941121 -176.17963 -15.766308 108.95098
1674075000 -15.750642 76.611641 -0.3606585 -177.15529 -0.35994354 -177.15248 -15.808929 107.6343
1683070000 -15.698889 76.094391 -0.36213177 -178.12672 -0.36242637 -178.12047 -15.800255 105.93783
1692065000 -15.616401 75.460083 -0.36600938 -179.10869 -0.36564749 -179.10591 -15.699057 104.37868
1701060000 -15.518163 74.515213 -0.36935914 179.91571 -0.36968103 179.9198 -15.559359 103.27827
1710055000 -15.432176 73.266685 -0.37298453 178.96138 -0.37327424 178.96432 -15.431422 102.69736
1719050000 -15.388386 71.893646 -0.37583187 178.00444 -0.37526739 178.00726 -15.372058 102.28413
1728045000 -15.371385 70.663734 -0.37606305 177.03081 -0.37527162 177.03668 -15.393241 101.69876
1737040000 -15.368172 69.748871 -0.37596679 176.06868 -0.37539244 176.06894 -15.440153 100.62253
1746035000 -15.343989 69.164543 -0.37792447 175.09731 -0.37745517 175.10234 -15.460016 99.156311
1755030000 -15.278962 68.550758 -0.38086832 174.10527 -0.37963304 174.11311 -15.407262 97.58297
1764025000 -15.190195 67.706932 -0.38479662 173.13078 -0.3838475 173.13104 -15.283895 96.254784
1773020000 -15.099513 66.615578 -0.38861132 172.16867 -0.38733646 172.17442 -15.154417 95.406464
1782015000 -15.043976 65.284256 -0.39143011 171.20587 -0.38996723 171.21201 -15.07116 94.901131
1791010000 -15.022663 64.01403 -0.3912386 170.24059 -0.39084348 170.24318 -15.062721 94.338821
1800005000 -15.026091 62.950077 -0.39141765 169.27843 -0.39033058 169.28304 -15.104807 93.568718
1809000000 -15.015706 62.254845 -0.39249024 168.29823 -0.39154172 168.30295 -15.143365 92.309486
1817995000 -14.976114 61.627567 -0.39488715 167.30899 -0.39425528 167.31367 -15.125834 90.817184
1826990000 -14.892372 60.905998 -0.39956826 166.31837 -0.39777613 166.3307 -15.037137 89.328094
1835985000 -14.807301 59.941639 -0.4035286 165.35838 -0.40205142 165.3632 -14.915483 88.258591
1844980000 -14.739938 58.692753 -0.40583298 164.39117 -0.40507448 164.39055 -14.819189 87.526848
1853975000 -14.713924 57.397934 -0.40677553 163.42468 -0.40615812 163.4267 -14.779934 86.990387
1862970000 -14.711639 56.285255 -0.40695348 162.45995 -0.40550074 162.46873 -14.80264 86.379837
1871965000 -14.716789 55.471325 -0.40768731 161.48769 -0.40668541 161.48549 -14.842115 85.363129
1880960000 -14.685839 54.765079 -0.40927875 160.48874 -0.40867123 160.49469 -14.856025 83.991989
1889955000 -14.6204 54.109673 -0.41249126 159.50632 -0.41165048 159.50731 -14.805696 82.468987
1898950000 -14.543132 53.224144 -0.41738692 158.5331 -0.41633776 158.53436 -14.70308 81.175354
1907945000 -14.478146 52.072788 -0.41987714 157.55663 -0.41915038 157.55991 -14.607326 80.255112
1916940000 -14.440417 50.832863 -0.4209705 156.58929 -0.41989768 156.5862 -14.546254 79.651695
1925935000 -14.440251 49.706711 -0.42050621 155.62524 -0.41974711 155.62834 -14.545449 79.0896
1934930000 -14.448976 48.761459 -0.42126083 154.6461 -0.42153352 154.65306 -14.581854 78.262306
1943925000 -14.434555 47.977798 -0.4232285 153.64819 -0.42217907 153.65195 -14.603395 77.075645
1952920000 -14.380714 47.313877 -0.42580459 152.66537 -0.42495209 152.6685 -14.58336 75.572266
1961915000 -14.307737 46.511677 -0.43015876 151.6857 -0.42893937 151.69046 -14.516733 74.160629
1970910000 -14.240107 45.457329 -0.43250391 150.70512 -0.43250304 150.70609 -14.426126 73.072517
1979905000 -14.209642 44.291664 -0.43347088 149.73335 -0.43233091 149.73495 -14.353296 72.315186
1988900000 -14.206199 43.103645 -0.43364534 148.7666 -0.43348202 148.77153 -14.328695 71.807312
1997895000 -14.216364 42.080101 -0.43351206 147.78822 -0.43315339 147.78558 -14.354596 71.120491
2006890000 -14.212007 41.217861 -0.43509009 146.78622 -0.434616 146.79094 -14.386239 70.073128
2015885000 -14.171016 40.505722 -0.43744621 145.80415 -0.43774855 145.79997 -14.395684 68.71492
2024880000 -14.113235 39.768227 -0.44144413 144.81688 -0.44072923 144.81934 -14.357775 67.199318
2033875000 -14.051567 38.836765 -0.44464612 143.82219 -0.44364083 143.82489 -14.27839 65.925659
2042870000 -14.01509 37.748405 -0.44584727 142.84778 -0.44446632 142.84857 -14.200585 65.02063
2051865000 -14.009409 36.583458 -0.44632548 141.88179 -0.44522056 141.88107 -14.155681 64.43557
2060860000 -14.025177 35.476437 -0.44666657 140.89319 -0.44629076 140.89491 -14.161974 63.853657
2069855000 -14.025397 34.565105 -0.44729495 139.89722 -0.44656733 139.89853 -14.196189 62.971764
2078850000 -14.002092 33.798283 -0.44943663 138.90962 -0.4489888 138.90517 -14.221296 61.715614
2087845000 -13.951425 33.076023 -0.45269281 137.91539 -0.4524124 137.91557 -14.214522 60.207928
2096840000 -13.899493 32.182205 -0.45493546 136.9187 -0.45436174 136.91916 -14.152393 58.799576
2105835000 -13.856873 31.173622 -0.45634848 135.94171 -0.45612738 135.93956 -14.077245 57.779972
2114830000 -13.848983 30.046135 -0.45712405 134.96786 -0.45719883 134.97179 -14.020455 57.124996
2123825000 -13.855453 28.880407 -0.45720515 133.97302 -0.45730612 133.9769 -14.006786 56.628529
2132820000 -13.86757 27.906708 -0.45839855 132.97997 -0.45732766 132.97795 -14.035574 55.843987
2141815000 -13.863367 27.097622 -0.46022338 131.99098 -0.45889801 131.99515 -14.072111 54.724133
2150810000 -13.829494 26.349722 -0.46187365 130.99026 -0.46155953 130.99144 -14.090262 53.261574
2159805000 -13.782194 25.537933 -0.46334451 129.98322 -0.46314985 129.98668 -14.058853 51.755814
2168800000 -13.741656 24.605381 -0.46597654 129.00725 -0.46518007 129.00467 -13.993236 50.600292
2177795000 -13.728761 23.526428 -0.46716657 128.02516 -0.46638143 128.02623 -13.92988 49.811832
2186790000 -13.735435 22.373381 -0.46743727 127.02682 -0.46699968 127.03158 -13.901696 49.232193
2195785000 -13.748193 21.317844 -0.46793398 126.03139 -0.46679732 126.03159 -13.913612 48.574226
2204780000 -13.755936 20.458729 -0.46898559 125.0381 -0.46872547 125.03841 -13.958007 47.562565
2213775000 -13.739262 19.691105 -0.47070235 124.02982 -0.46967572 124.03088 -13.99787 46.190357
2222770000 -13.701837 18.920977 -0.47186857 123.01527 -0.47155637 123.02452 -13.988317 44.686199
2231765000 -13.660544 18.030859 -0.47353512 122.03262 -0.47309604 122.0331 -13.935768 43.445061
2240760000 -13.638326 16.982416 -0.47536746 121.04098 -0.47528142 121.05049 -13.869721 42.538803
2249755000 -13.641925 15.831328 -0.47676837 120.04198 -0.47603869 120.04726 -13.827168 41.872192
2258750000 -13.659153 14.742992 -0.47699055 119.04713 -0.47657973 119.05199 -13.83322 41.239208
2267745000 -13.684644 13.852708 -0.47762331 118.04672 -0.47685793 118.05638 -13.878049 40.330887
2276740000 -13.687031 13.044528 -0.47717315 117.03117 -0.47692439 117.03505 -13.936137 39.100555
2285735000 -13.662926 12.312876 -0.47805646 116.01724 -0.47848505 116.02176 -13.951361 37.623657
2294730000 -13.624962 11.471535 -0.48010901 115.02206 -0.47994539 115.02944 -13.92021 36.284119
2303725000 -13.596896 10.462065 -0.48237541 114.02872 -0.48226088 114.03204 -13.853355 35.224552
2312720000 -13.583667 9.2815485 -0.48466992 113.02259 -0.48326069 113.02431 -13.801587 34.472935
2321715000 -13.601198 8.2227812 -0.48418027 112.03007 -0.48372278 112.03034 -13.793691 33.831341
2330710000 -13.641015 7.2807231 -0.48419183 111.02735 -0.48352686 111.02975 -13.83917 33.003036
2339705000 -13.665678 6.470377 -0.4833822 109.99566 -0.48227593 109.99676 -13.903689 31.878733
2348700000 -13.660288 5.7629766 -0.48325258 108.97272 -0.48186809 108.97443 -13.935739 30.472754
2357695000 -13.629771 4.9242115 -0.48496225 107.97701 -0.48424712 107.97947 -13.919076 29.119917
2366690000 -13.59066 3.873095 -0.48784953 106.97294 -0.48684549 106.97237 -13.862592 27.969484
2375685000 -13.568916 2.7355173 -0.48991859 105.964 -0.48881644 105.96268 -13.808385 27.086523
2384680000 -13.587714 1.6322612 -0.48999479 104.96916 -0.48870838 104.96675 -13.792804 26.403078
2393675000 -13.633383 0.68744618 -0.48962826 103.95936 -0.48882222 103.9595 -13.832577 25.638739
2402670000 -13.684805 -0.10466694 -0.48681131 102.92348 -0.48647803 102.92319 -13.904244 24.566093
2411665000 -13.701075 -0.7555536 -0.48593083 101.89626 -0.48583588 101.90503 -13.962101 23.228851
2420660000 -13.68032 -1.5320044 -0.48744291 100.88137 -0.48697841 100.88265 -13.96223 21.851431
2429655000 -13.627189 -2.5252805 -0.49086568 99.859192 -0.49011707 99.863701 -13.918131 20.55792
2438650000 -13.588546 -3.7123432 -0.49329284 98.852882 -0.49236321 98.854897 -13.85386 19.598022
2447645000 -13.604001 -4.883008 -0.49408141 97.856934 -0.49336565 97.859215 -13.834769 18.853149
2456640000 -13.65784 -5.8976769 -0.49314901 96.839218 -0.49208313 96.838989 -13.867361 18.165897
2465635000 -13.729592 -6.7094417 -0.4899348 95.801323 -0.48925245 95.804977 -13.941749 17.225494
2474630000 -13.770827 -7.3695292 -0.48776758 94.766693 -0.48784083 94.770668 -14.017194 16.018955
2483625000 -13.768138 -8.0497875 -0.48908558 93.743217 -0.48880833 93.743126 -14.046761 14.578153
2492620000 -13.719115 -9.0207367 -0.49271551 92.707314 -0.49180889 92.712563 -14.015744 13.166482
2501615000 -13.673967 -10.141995 -0.49529108 91.69696 -0.49466386 91.701126 -13.955303 12.024769
2510610000 -13.675487 -11.334825 -0.49646279 90.69854 -0.49583629 90.699089 -13.922876 11.23168
2519605000 -13.728508 -12.391002 -0.49531895 89.670204 -0.49480805 89.681755 -13.947056 10.54701
2528600000 -13.815591 -13.234904 -0.49175438 88.628876 -0.49142161 88.632164 -14.022353 9.7540808
2537595000 -13.886846 -13.876261 -0.48948047 87.590363 -0.4886632 87.594109 -14.11552 8.6642294
2546590000 -13.900875 -14.544781 -0.48921594 86.544395 -0.48879269 86.55162 -14.171931 7.2416091
2555585000 -13.861682 -15.394393 -0.4916738 85.499794 -0.49087176 85.50576 -14.16165 5.6976113
2564580000 -13.807707 -16.503096 -0.49452376 84.47464 -0.49419078 84.484123 -14.104207 4.4122334
2573575000 -13.796226 -17.727728 -0.49697766 83.470673 -0.49617463 83.474625 -14.063528 3.5077043
2582570000 -13.845425 -18.919306 -0.49598253 82.446152 -0.49515155 82.451927 -14.069275 2.880568
2591565000 -13.942946 -19.875731 -0.49124622 81.404343 -0.49132189 81.409073 -14.144054 2.2823737
2600560000 -14.038913 -20.508305 -0.48845375 80.361565 -0.48807922 80.366402 -14.253774 1.3011402
2609555000 -14.084986 -21.087786 -0.48832947 79.305222 -0.48788428 79.310219 -14.335111 -0.11593723
2618550000 -14.053755 -21.829849 -0.49003509 78.24472 -0.48936892 78.244965 -14.356362 -1.7735443
2627545000 -14.001781 -22.801287 -0.49330619 77.209404 -0.49263865 77.209427 -14.311002 -3.2656624
2636540000 -13.977642 -24.019062 -0.49615142 76.195374 -0.49375048 76.201866 -14.261636 -4.3233604
2645535000 -14.017031 -25.30776 -0.49480197 75.165276 -0.49380791 75.162788 -14.252211 -4.9316149
2654530000 -14.117132 -26.370955 -0.49020258 74.116089 -0.49004522 74.120438 -14.313374 -5.3903894
2663525000 -14.239512 -27.120432 -0.48727176 73.071198 -0.48559415 73.074371 -14.440014 -6.1592932
2672520000 -14.312124 -27.664425 -0.48595226 72.000732 -0.48404658 72.006241 -14.561627 -7.4944592
2681515000 -14.303919 -28.280432 -0.48683968 70.926163 -0.48569462 70.928711 -14.611527 -9.2819319
2690510000 -14.254566 -29.092743 -0.4896749 69.881065 -0.48866609 69.880188 -14.59251 -11.046863
2699505000 -14.221452 -30.21064 -0.49242672 68.847977 -0.49126333 68.847054 -14.522155 -12.339159
2708500000 -14.2448 -31.524923 -0.49202603 67.805748 -0.49213445 67.804298 -14.481817 -12.995424
2717495000 -14.340006 -32.753368 -0.4891015 66.759201 -0.48779276 66.766357 -14.530083 -13.310197
2726490000 -14.470233 -33.644932 -0.48533392 65.711868 -0.48370394 65.712456 -14.649091 -13.842067
2735485000 -14.576144 -34.265236 -0.48249549 64.630859 -0.48149902 64.636734 -14.801207 -15.046683
2744480000 -14.610553 -34.73634 -0.48178247 63.542057 -0.48165521 63.543015 -14.904773 -16.861774
2753475000 -14.57678 -35.366749 -0.48326966 62.482155 -0.48321787 62.488098 -14.916234 -18.856342
2762470000 -14.539044 -36.368019 -0.48719731 61.433365 -0.4867647 61.43618 -14.855826 -20.389572
2771465000 -14.539072 -37.688839 -0.48762187 60.370472 -0.48732215 60.373055 -14.791482 -21.159897
2780460000 -14.61143 -38.981701 -0.4857913 59.324524 -0.48470148 59.330021 -14.805953 -21.407572
2789455000 -14.748102 -40.113987 -0.48273212 58.273502 -0.48050079 58.277115 -14.921189 -21.761604
2798450000 -14.881312 -40.779392 -0.4789131 57.189838 -0.47741094 57.195404 -15.087999 -22.722324
2807445000 -14.956166 -41.188057 -0.47743231 56.092644 -0.47594541 56.097813 -15.246796 -24.524874
2816440000 -14.956937 -41.540489 -0.47864142 55.018341 -0.47680044 55.022373 -15.309065 -26.739258
2825435000 -14.923386 -42.325432 -0.48180386 53.937672 -0.48000205 53.946831 -15.268422 -28.556711
2834430000 -14.906016 -43.54451 -0.48339263 52.86166 -0.48138914 52.870892 -15.184349 -29.583927
2843425000 -14.968121 -45.030483 -0.48112655 51.81461 -0.48026976 51.820503 -15.166641 -29.839157
2852420000 -15.096347 -46.408016 -0.47906947 50.759689 -0.47746468 50.760841 -15.251498 -29.959789
2861415000 -15.24806 -47.339314 -0.47421587 49.665062 -0.47458315 49.67234 -15.433477 -30.632305
2870410000 -15.371876 -47.721977 -0.47234792 48.568813 -0.47091323 48.573578 -15.646355 -32.203442
2879405000 -15.420068 -47.862537 -0.47218171 47.47567 -0.4710699 47.475307 -15.781503 -34.472824
2888400000 -15.405643 -48.342274 -0.47443444 46.372807 -0.47301379 46.378448 -15.778404 -36.716278
2897395000 -15.36866 -49.307617 -0.47706595 45.27882 -0.47457796 45.282295 -15.684514 -38.136852
2906390000 -15.394238 -50.793636 -0.47680131 44.215206 -0.47501197 44.221756 -15.61106 -38.586376
2915385000 -15.499292 -52.420048 -0.4755035 43.153015 -0.47381109 43.157661 -15.651562 -38.605946
2924380000 -15.655256 -53.679592 -0.4717145 42.057934 -0.46998262 42.059105 -15.812578 -38.928303
2933375000 -15.816563 -54.215401 -0.46774745 40.956326 -0.46611974 40.9631 -16.064606 -40.14505
2942370000 -15.917898 -54.219936 -0.46615347 39.852306 -0.46435034 39.858997 -16.279505 -42.337532
2951365000 -15.940793 -54.269684 -0.46759495 38.725117 -0.46525413 38.728348 -16.351528 -44.821987
2960360000 -15.908942 -54.898762 -0.4695918 37.611805 -0.46730897 37.613987 -16.285662 -46.683327
2969355000 -15.914701 -56.258644 -0.47033453 36.534809 -0.46831658 36.539841 -16.185097 -47.548996
2978350000 -15.985928 -58.028481 -0.46954364 35.455997 -0.4686701 35.456871 -16.159033 -47.63113
2987345000 -16.149786 -59.603046 -0.46630996 34.358624 -0.46560365 34.36227 -16.291105 -47.680603
2996340000 -16.346037 -60.379036 -0.46311584 33.255142 -0.4619675 33.259724 -16.567337 -48.415493
3005335000 -16.505329 -60.437893 -0.46131399 32.142658 -0.45898432 32.1436 -16.847553 -50.363495
3014330000 -16.568281 -60.197052 -0.46038255 30.990545 -0.45968264 31.001972 -17.012295 -52.954361
3023325000 -16.550653 -60.412144 -0.46215206 29.857821 -0.46081457 29.868111 -16.994413 -55.398727
3032320000 -16.51194 -61.484386 -0.46388716 28.762604 -0.46307206 28.766903 -16.865278 -56.804462
3041315000 -16.547272 -63.290657 -0.46500805 27.668135 -0.46309915 27.666277 -16.778122 -57.161526
3050310000 -16.692226 -65.123604 -0.46222749 26.561892 -0.46148154 26.570177 -16.847778 -57.049404
3059305000 -16.926216 -66.241989 -0.45881283 25.461237 -0.45767885 25.463764 -17.105053 -57.31052
3068300000 -17.152506 -66.395615 -0.45605204 24.333584 -0.45512116 24.338091 -17.457846 -58.640106
3077295000 -17.290863 -65.937149 -0.45455202 23.171282 -0.45371914 23.175728 -17.74054 -61.14212
3086290000 -17.303196 -65.719986 -0.45579672 22.020353 -0.45432037 22.022709 -17.824858 -64.046593
3095285000 -17.255199 -66.429092 -0.45746341 20.8981 -0.45639133 20.901655 -17.722153 -66.176018
3104280000 -17.246508 -68.102119 -0.45914832 19.774351 -0.45849493 19.778353 -17.573051 -67.061249
3113275000 -17.367771 -70.096664 -0.45812356 18.658655 -0.45719939 18.664177 -17.567026 -66.96225
3122270000 -17.603981 -71.520317 -0.45564866 17.548553 -0.4542034 17.554697 -17.771843 -66.78894
3131265000 -17.896215 -71.945618 -0.45208204 16.409225 -0.45115975 16.414753 -18.155752 -67.493896
3140260000 -18.097136 -71.375984 -0.45027873 15.236928 -0.44890067 15.242909 -18.55192 -69.559525
3149255000 -18.153925 -70.769318 -0.45092022 14.076328 -0.44908324 14.079747 -18.758017 -72.772179
3158250000 -18.091728 -71.010918 -0.45252675 12.930188 -0.45094523 12.934744 -18.71306 -75.795898
3167245000 -18.045649 -72.401947 -0.45488745 11.789762 -0.45310453 11.790302 -18.52133 -77.483635
3176240000 -18.128208 -74.433342 -0.45436233 10.659376 -0.45316312 10.663039 -18.424685 -77.619537
3185235000 -18.364067 -76.193512 -0.45256755 9.5439396 -0.45207083 9.5470858 -18.555973 -77.146843
3194230000 -18.705261 -76.911385 -0.44948369 8.3876982 -0.44916821 8.3901758 -18.94297 -77.064751
3203225000 -19.005091 -76.404289 -0.44697988 7.1988683 -0.44648153 7.2087874 -19.441353 -78.505753
3212220000 -19.139202 -75.347427 -0.44612896 6.0270829 -0.44503728 6.0309348 -19.837606 -81.659866
3221215000 -19.09671 -75.132507 -0.44840008 4.8610353 -0.44629735 4.8596892 -19.904816 -85.561966
3230210000 -19.0163 -76.094376 -0.45056129 3.6848345 -0.44913691 3.6887529 -19.717628 -88.294922
3239205000 -19.048254 -78.109428 -0.45234546 2.5452428 -0.45016041 2.5439675 -19.521275 -89.115791
3248200000 -19.258896 -80.045319 -0.45071033 1.4117703 -0.45055783 1.4133773 -19.539879 -88.426476
3257195000 -19.63166 -81.130104 -0.4494527 0.24517781 -0.44794777 0.25026935 -19.872877 -87.666962
3266190000 -19.996893 -80.68956 -0.44636765 -0.94752163 -0.44467163 -0.94164926 -20.447432 -88.247726
3275185000 -20.220016 -79.239647 -0.44511759 -2.1337986 -0.44423178 -2.1353505 -21.015516 -91.164063
3284180000 -20.199003 -78.205963 -0.44693628 -3.3325438 -0.44545603 -3.3296025 -21.257984 -95.951233
3293175000 -20.072756 -78.561562 -0.44960341 -4.5258718 -0.44922101 -4.5237799 -21.107222 -100.14709
3302170000 -20.044327 -80.345818 -0.45047715 -5.6922026 -0.45007515 -5.6904397 -20.7976 -101.90661
3311165000 -20.203295 -82.493622 -0.45144007 -6.8474174 -0.45018139 -6.8464098 -20.672235 -101.24358
3320160000 -20.569706 -84.056725 -0.45033932 -8.0284824 -0.44972974 -8.0260019 -20.903641 -99.532021
3329155000 -21.037193 -84.132553 -0.44821411 -9.2260447 -0.44622362 -9.2220602 -21.509043 -98.780113
3338150000 -21.387011 -82.721115 -0.44592845 -10.425156 -0.44579476 -10.420667 -22.271736 -100.70589
3347145000 -21.47254 -81.053795 -0.44695836 -11.641554 -0.44686109 -11.639761 -22.844431 -105.92551
3356140000 -21.34481 -80.524918 -0.44941565 -12.859614 -0.44878441 -12.855045 -22.866547 -112.01926
3365135000 -21.233677 -81.536903 -0.45021814 -14.045185 -0.45075482 -14.041043 -22.5138 -115.77032
3374130000 -21.321484 -83.32914 -0.45265287 -15.228438 -0.4519453 -15.222019 -22.223801 -115.94761
3383125000 -21.64535 -84.801857 -0.45218891 -16.425386 -0.45196915 -16.418318 -22.306742 -114.28065
3392120000 -22.1348 -85.033386 -0.45024684 -17.62476 -0.449662 -17.624624 -22.836723 -112.70318
3401115000 -22.536896 -83.531631 -0.44965911 -18.836937 -0.44889435 -18.839802 -23.69618 -113.93455
3410110000 -22.655102 -81.339752 -0.45057735 -20.068817 -0.44955605 -20.065079 -24.484737 -119.15453
3419105000 -22.531769 -80.173103 -0.45248076 -21.305134 -0.45152077 -21.305342 -24.685259 -126.89192
3428100000 -22.35603 -80.612869 -0.45503607 -22.516415 -0.45433041 -22.513369 -24.28113 -132.12708
3437095000 -22.36804 -82.340401 -0.45702109 -23.724522 -0.45584446 -23.718536 -23.820484 -132.95407
3446090000 -22.697639 -83.955681 -0.45737427 -24.94396 -0.45636919 -24.935753 -23.788187 -130.69748
3455085000 -23.253103 -84.310364 -0.45667082 -26.16618 -0.45481586 -26.162249 -24.32691 -127.99229
3464080000 -23.78281 -82.738205 -0.45498261 -27.391636 -0.45489377 -27.38769 -25.361349 -127.85764
3473075000 -24.024981 -79.964317 -0.4565495 -28.650042 -0.45551929 -28.642637 -26.553829 -133.42055
3482070000 -23.871578 -77.739067 -0.45790982 -29.903536 -0.45745105 -29.901291 -27.046299 -143.93652
3491065000 -23.577425 -77.422966 -0.46029678 -31.136248 -0.45960322 -31.13344 -26.5634 -152.49574
3500060000 -23.440805 -78.82003 -0.46391365 -32.372303 -0.46190962 -32.364204 -25.81909 -154.87431
3509055000 -23.631311 -80.36985 -0.46445867 -33.614075 -0.46246475 -33.605335 -25.553864 -152.44644
3518050000 -24.151167 -80.808487 -0.46388313 -34.855206 -0.46302944 -34.847641 -25.964617 -148.96317
3527045000 -24.741598 -78.905983 -0.46456757 -36.096401 -0.46243912 -36.093578 -27.128984 -147.88426
3536040000 -25.033867 -75.488762 -0.4643757 -37.374744 -0.46367833 -37.367992 -28.655457 -153.74818
3545035000 -24.882626 -72.374565 -0.46669385 -38.647079 -0.46570191 -38.640182 -29.363085 -167.25981
3554030000 -24.493418 -71.600136 -0.46911016 -39.899246 -0.46802828 -39.899063 -28.659838 -179.19276
3563025000 -24.205009 -73.01107 -0.47320575 -41.160564 -0.47203308 -41.158894 -27.520559 177.83588
3572020000 -24.265514 -74.9188 -0.47479856 -42.429523 -0.473676 -42.420845 -26.989187 -179.44487
3581015000 -24.668255 -75.652092 -0.47501457 -43.686089 -0.4729526 -43.674141 -27.326843 -175.04044
3590010000 -25.233955 -73.85482 -0.47456351 -44.948753 -0.47362113 -44.943016 -28.565992 -173.53435
3599005000 -25.536339 -69.623817 -0.47625244 -46.24366 -0.4748413 -46.241196 -30.31119 179.62186
3608000000 -25.335718 -65.835213 -0.47841251 -47.530949 -0.47667536 -47.53056 -31.101372 162.40471
3616995000 -24.874718 -64.452942 -0.48186663 -48.811535 -0.47966063 -48.805294 -29.915716 147.89154
3625990000 -24.477388 -65.821205 -0.48548734 -50.105457 -0.48372942 -50.101372 -28.384365 144.78961
3634985000 -24.429152 -68.099312 -0.48780319 -51.395542 -0.48525807 -51.393456 -27.668316 148.04442
3643980000 -24.745314 -69.322517 -0.4881331 -52.67775 -0.4866153 -52.676495 -27.861616 152.87115
3652975000 -25.208145 -67.948212 -0.48852298 -53.970947 -0.48699984 -53.971935 -29.007473 154.32249
3661970000 -25.435455 -64.007446 -0.49075902 -55.28611 -0.48777249 -55.290867 -30.575832 146.67291
3670965000 -25.18457 -59.975346 -0.49236205 -56.5989 -0.49058366 -56.595661 -31.018379 129.33307
3679960000 -24.664175 -58.732143 -0.49643987 -57.900749 -0.49459398 -57.898701 -29.517521 116.1176
3688955000 -24.218964 -60.174023 -0.4999162 -59.222637 -0.49859577 -59.219223 -27.893661 113.54032
3697950000 -24.101311 -62.831882 -0.50289422 -60.540039 -0.50151682 -60.531986 -27.030327 117.19578
3706945000 -24.324827 -64.695061 -0.50414068 -61.84304 -0.50233161 -61.83802 -27.120163 122.05149
3715940000 -24.697388 -63.924774 -0.50522548 -63.163151 -0.50366974 -63.169701 -28.013199 123.51105
3724935000 -24.886238 -60.635498 -0.50729966 -64.50779 -0.50454217 -64.510094 -29.25127 117.27007
3733930000 -24.638031 -57.077785 -0.50966471 -65.848015 -0.50780183 -65.844414 -29.567266 102.54996
3742925000 -24.11055 -55.66711 -0.5141111 -67.184265 -0.51221222 -67.174629 -28.242308 91.014122
3751920000 -23.645538 -57.129402 -0.51834267 -68.532684 -0.51625186 -68.528297 -26.718763 88.582069
3760915000 -23.479166 -60.065136 -0.52071989 -69.871887 -0.5186516 -69.872292 -25.798309 91.766922
3769910000 -23.617771 -62.431091 -0.52214926 -71.206169 -0.52104592 -71.204231 -25.710024 96.371552
3778905000 -23.929836 -62.668659 -0.52443713 -72.558586 -0.52205849 -72.559013 -26.355587 98.275314
3787900000 -24.098604 -60.225891 -0.52624434 -73.932159 -0.52362961 -73.927933 -27.356836 94.13269
3796895000 -23.891281 -56.981129 -0.52833122 -75.291473 -0.52602607 -75.288635 -27.752941 82.952171
3805890000 -23.419136 -55.54887 -0.53372103 -76.658768 -0.53127027 -76.653366 -26.838825 72.236938
3814885000 -22.976646 -56.80423 -0.5387131 -78.041153 -0.53615648 -78.032532 -25.472197 68.920921
3823880000 -22.780849 -59.745045 -0.54193491 -79.409744 -0.53967178 -79.408127 -24.524019 71.363693
3832875000 -22.889933 -62.600384 -0.54384416 -80.778702 -0.54140878 -80.773376 -24.247099 75.785049
3841870000 -23.163336 -63.843685 -0.54622245 -82.168907 -0.54322922 -82.168068 -24.660978 78.783157
3850865000 -23.357613 -62.787109 -0.54684043 -83.56221 -0.544958 -83.562157 -25.50345 77.000595
3859860000 -23.246662 -60.30294 -0.54995984 -84.958679 -0.54820383 -84.956863 -26.125542 68.983337
3868855000 -22.846386 -58.835518 -0.55504829 -86.36248 -0.55273598 -86.355164 -25.703859 58.892685
3877850000 -22.410919 -59.654564 -0.56033677 -87.776993 -0.55704337 -87.770317 -24.554865 53.956661
3886845000 -22.184601 -62.29311 -0.56396282 -89.177147 -0.561198 -89.173805 -23.540472 54.679165
3895840000 -22.223614 -65.410828 -0.56666631 -90.575005 -0.56466675 -90.574905 -23.053711 58.436722
3904835000 -22.45698 -67.283501 -0.56945491 -92.002083 -0.56713557 -92.00338 -23.215563 61.816334
3913830000 -22.653322 -67.307617 -0.57030058 -93.437744 -0.56889069 -93.433746 -23.876625 62.099888
3922825000 -22.654369 -65.679176 -0.57307738 -94.865166 -0.57072949 -94.864143 -24.595985 57.076942
3931820000 -22.362749 -64.519676 -0.57768971 -96.305779 -0.57555419 -96.304672 -24.61722 48.537167
3940815000 -21.99947 -65.051971 -0.58262664 -97.767426 -0.58059609 -97.758766 -23.834969 42.463165
3949810000 -21.754347 -67.312874 -0.58690929 -99.203857 -0.58491021 -99.197762 -22.856489 41.505993
3958805000 -21.75416 -70.323479 -0.59122992 -100.64816 -0.58986157 -100.64146 -22.260054 44.233318
3967800000 -21.959326 -72.64814 -0.59403205 -102.11274 -0.59233403 -102.10673 -22.229158 47.611149
3976795000 -22.223886 -73.380058 -0.59530789 -103.58665 -0.59325683 -103.57974 -22.721855 49.091515
3985790000 -22.318052 -72.539276 -0.59864974 -105.05252 -0.59601927 -105.04435 -23.468533 46.370918
3994785000 -22.148491 -71.70768 -0.60291582 -106.54766 -0.60011721 -106.53656 -23.811651 39.584984
4003780000 -21.839617 -72.322777 -0.60829902 -108.04182 -0.60564274 -108.03604 -23.339121 32.722931
4012775000 -21.574581 -74.427559 -0.61299336 -109.52522 -0.61099446 -109.51426 -22.452951 30.275434
4021770000 -21.519831 -77.546867 -0.61792552 -111.01518 -0.61567408 -111.00611 -21.741148 31.764427
4030765000 -21.680376 -80.241043 -0.62187243 -112.52473 -0.61858249 -112.52113 -21.509018 35.022953
4039760000 -21.967039 -81.572639 -0.62263507 -114.04197 -0.62038058 -114.03112 -21.836279 37.34404
4048755000 -22.179432 -81.487335 -0.62537801 -115.55347 -0.62306923 -115.54484 -22.536337 36.631741
4057750000 -22.169302 -80.79097 -0.62987781 -117.09469 -0.62663108 -117.0926 -23.138529 31.791183
4066745000 -21.926294 -81.130249 -0.63454998 -118.6406 -0.63199526 -118.63577 -23.060005 25.07411
4075740000 -21.684982 -83.163925 -0.64014381 -120.16916 -0.63794768 -120.16871 -22.341433 21.049566
4084735000 -21.585949 -86.300011 -0.64594072 -121.714 -0.6436255 -121.71213 -21.580044 21.084669
4093730000 -21.714123 -89.514923 -0.65030009 -123.27601 -0.64828306 -123.27197 -21.171907 23.705042
4102725000 -22.008577 -91.649078 -0.65190899 -124.83492 -0.65031993 -124.83033 -21.298477 26.660791
4111720000 -22.332806 -92.259933 -0.65557349 -126.41315 -0.65223926 -126.40676 -21.878403 27.738867
4120715000 -22.458822 -91.956856 -0.6589067 -128.01678 -0.65646225 -128.00816 -22.593718 25.123077
4129710000 -22.328838 -92.206039 -0.66269833 -129.6183 -0.66127741 -129.61525 -22.860653 19.327477
4138705000 -22.099266 -94.091888 -0.66923565 -131.20699 -0.6668216 -131.20358 -22.429314 14.077905
4147700000 -21.959812 -97.371704 -0.6753636 -132.81047 -0.67331678 -132.8121 -21.670221 12.488153
4156695000 -22.055841 -101.05933 -0.68121743 -134.43318 -0.67793673 -134.42786 -21.128136 14.303946
4165690000 -22.373898 -104.01255 -0.68368161 -136.04111 -0.68144882 -136.04042 -21.048 17.416538
4174685000 -22.800735 -105.34623 -0.68721199 -137.68033 -0.68380433 -137.67859 -21.467505 19.88131
4183680000 -23.099691 -105.50317 -0.69010407 -139.35004 -0.68782097 -139.35431 -22.195932 19.512827
4192675000 -23.111805 -105.77562 -0.69425774 -141.01898 -0.69253349 -141.01288 -22.75123 15.381742
4201670000 -22.928476 -107.7533 -0.70050663 -142.68394 -0.6975739 -142.67578 -22.671215 9.7408676
4210665000 -22.762249 -111.30265 -0.70772785 -144.3591 -0.70604604 -144.36028 -22.036259 6.2414103
4219660000 -22.794796 -115.74222 -0.71354312 -146.04424 -0.71172976 -146.04466 -21.353609 6.7158647
4228655000 -23.107744 -119.61346 -0.71852982 -147.72784 -0.71534163 -147.72784 -21.056503 9.7220564
4237650000 -23.646986 -122.07795 -0.72267282 -149.43813 -0.71923631 -149.43649 -21.248079 13.203232
4246645000 -24.125269 -122.96013 -0.72649425 -151.18289 -0.72330821 -151.18449 -21.863119 14.960402
4255640000 -24.312073 -123.36144 -0.73075885 -152.92186 -0.72742736 -152.92325 -22.585209 13.201973
4264635000 -24.211611 -125.15174 -0.73785847 -154.66634 -0.7337181 -154.66885 -22.880116 8.1188726
4273630000 -23.995173 -129.09459 -0.74549764 -156.42969 -0.7421717 -156.43561 -22.494587 3.1073346
4282625000 -23.951609 -134.40863 -0.75233698 -158.19089 -0.74946839 -158.19415 -21.779791 1.7460018
4291620000 -24.235844 -139.89487 -0.75913161 -159.95555 -0.75522405 -159.96156 -21.247749 4.1086011
4300615000 -24.822432 -144.22992 -0.76373082 -161.75883 -0.76119679 -161.75647 -21.165123 8.226078
4309610000 -25.501001 -146.79944 -0.76853329 -163.58556 -0.76614279 -163.59068 -21.538992 11.733355
4318605000 -25.921446 -148.04056 -0.77402657 -165.41983 -0.7708289 -165.42184 -22.225685 12.594113
4327600000 -25.904221 -150.09868 -0.78095561 -167.26118 -0.77776337 -167.26599 -22.813171 9.3888111
4336595000 -25.610435 -154.34515 -0.79035127 -169.12877 -0.78701288 -169.1259 -22.804899 3.8668535
4345590000 -25.346596 -160.7989 -0.79845119 -170.98341 -0.79524082 -170.98698 -22.190723 0.46854293
4354585000 -25.419937 -168.20457 -0.80651194 -172.84772 -0.80395007 -172.84167 -21.45838 1.2917752
4363580000 -25.857008 -175.42447 -0.81419557 -174.74211 -0.81143939 -174.7401 -21.02997 5.0969734
4372575000 -26.514709 178.89989 -0.81959218 -176.66319 -0.81685382 -176.67154 -21.057507 9.6365147
4381570000 -27.072958 175.14958 -0.82667422 -178.6001 -0.82362753 -178.59737 -21.516066 12.691457
4390565000 -27.147871 172.54326 -0.83387542 179.43765 -0.83190137 179.43481 -22.172453 12.098513
4399560000 -26.71286 168.48636 -0.84482729 177.45329 -0.84188223 177.45189 -22.55064 7.7513189
4408555000 -26.119114 162.25813 -0.85502005 175.47792 -0.85261774 175.47769 -22.239126 2.9077997
4417550000 -25.71981 154.21515 -0.86630923 173.49854 -0.86370707 173.49661 -21.463913 1.3433138
4426545000 -25.653658 145.47214 -0.87654215 171.48538 -0.87415171 171.48714 -20.743219 3.5222228
4435540000 -25.868198 137.46983 -0.88534254 169.4514 -0.88177299 169.44879 -20.383842 7.6442933
4444535000 -26.164845 131.63942 -0.89236069 167.39204 -0.88998973 167.39091 -20.503344 11.485935
4453530000 -26.193245 128.12041 -0.90301222 165.28911 -0.90062523 165.29553 -20.984758 12.967214
4462525000 -25.775518 125.47192 -0.91492993 163.16595 -0.9118287 163.17166 -21.499117 10.805579
4471520000 -25.008135 121.50714 -0.9277246 161.04816 -0.924685 161.05879 -21.533613 6.0657692
4480515000 -24.259789 115.54244 -0.9415161 158.92755 -0.93854457 158.92458 -20.944296 2.4244354
4489510000 -23.756517 108.34369 -0.95493931 156.76573 -0.95248395 156.77231 -20.115997 2.0709622
4498505000 -23.533741 101.07047 -0.96686828 154.59462 -0.9637149 154.59532 -19.487202 4.6536455
4507500000 -23.522785 95.335648 -0.97825718 152.39114 -0.97430855 152.39294 -19.29814 8.0816107
4516495000 -23.493643 91.720795 -0.99027389 150.12827 -0.98716265 150.12949 -19.532404 10.49256
4525490000 -23.200533 89.852837 -1.0041118 147.83148 -1.0011259 147.83881 -19.986137 10.086453
4534485000 -22.623058 87.729897 -1.0205979 145.53995 -1.0176762 145.54912 -20.23415 6.3806314
4543480000 -21.925455 84.020668 -1.0383654 143.22856 -1.0356177 143.2368 -19.945889 1.7325625
4552475000 -21.341784 78.846489 -1.0565757 140.89639 -1.053269 140.90164 -19.222389 -0.88494515
4561470000 -21.004219 73.187744 -1.0719148 138.55049 -1.0685111 138.55301 -18.519535 -0.40513167
4570465000 -20.91291 68.250664 -1.0859911 136.15804 -1.0831467 136.16859 -18.142859 1.8910717
4579460000 -20.913433 64.848274 -1.1014264 133.70006 -1.0977114 133.70276 -18.190218 4.2760758
4588455000 -20.812218 62.837776 -1.1178712 131.19267 -1.1153706 131.20317 -18.542524 4.7254171
4597450000 -20.46137 61.131485 -1.1383715 128.67085 -1.1354163 128.67935 -18.90593 2.2889605
4606445000 -19.96245 58.380325 -1.1606302 126.13158 -1.1583978 126.12925 -18.899216 -2.4237268
4615440000 -19.459282 54.294193 -1.183252 123.56126 -1.1806631 123.56928 -18.413891 -6.4831705
4624435000 -19.168108 49.426769 -1.2030791 120.97954 -1.1998754 120.98099 -17.765606 -7.7676549
4633430000 -19.103802 44.906666 -1.2222118 118.34322 -1.2194798 118.3543 -17.321615 -6.5582576
4642425000 -19.205088 41.486042 -1.240624 115.62805 -1.2376307 115.63759 -17.250349 -4.509501
4651420000 -19.275827 39.205662 -1.2608496 112.84863 -1.2581823 112.85611 -17.548214 -3.3684213
4660415000 -19.185787 37.548817 -1.2851617 110.02595 -1.2822255 110.04006 -18.010061 -4.7392941
4669410000 -18.92111 35.035816 -1.3128245 107.1665 -1.3098483 107.16841 -18.299488 -8.9131546
4678405000 -18.632574 31.331123 -1.3417684 104.26965 -1.3384084 104.27686 -18.143784 -13.598224
4687400000 -18.514984 26.685204 -1.3681118 101.34711 -1.3641381 101.35821 -17.677639 -16.087706
4696395000 -18.639418 21.958813 -1.394225 98.354752 -1.3896886 98.366592 -17.272181 -15.655783
4705390000 -18.97636 18.181484 -1.4185061 95.260162 -1.4152806 95.27446 -17.180721 -13.422399
4714385000 -19.384047 15.555546 -1.4460505 92.081078 -1.4430469 92.092613 -17.483566 -11.136456
4723380000 -19.675308 13.686275 -1.4778898 88.821404 -1.4742119 88.830467 -18.084326 -10.501695
4732375000 -19.821114 11.224898 -1.5138415 85.477715 -1.5110073 85.48542 -18.719133 -12.548316
4741370000 -19.97698 7.2129574 -1.5524136 82.079391 -1.5498437 82.086807 -19.013187 -16.180868
4750365000 -20.356018 1.7565801 -1.5935645 78.622086 -1.5896688 78.627922 -18.866463 -18.432285
4759360000 -21.122187 -4.4072499 -1.6354104 75.059875 -1.6312395 75.069733 -18.538622 -17.177843
4768355000 -22.371477 -10.039038 -1.6793137 71.369354 -1.676055 71.374901 -18.346798 -12.767159
4777350000 -24.064384 -14.239898 -1.7274203 67.543991 -1.7236352 67.545242 -18.449768 -6.4381828
4786345000 -26.110319 -16.769571 -1.7824876 63.581951 -1.7791417 63.590416 -18.835699 0.011293824
4795340000 -28.570362 -19.812134 -1.8469565 59.462399 -1.8440263 59.471722 -19.328806 5.1030278
4804335000 -32.323963 -29.072332 -1.922223 55.218956 -1.9185102 55.224457 -19.553148 8.0685778
4813330000 -39.868343 -73.801392 -2.009234 50.846809 -2.0063641 50.850811 -19.143827 9.7930393
4822325000 -33.94907 -171.88078 -2.1117623 46.316689 -2.1087048 46.324619 -18.068569 11.929158
4831320000 -26.826544 165.19305 -2.2283642 41.620602 -2.2244401 41.628899 -16.653282 15.506756
4840315000 -22.621319 152.9003 -2.3590491 36.757294 -2.3552606 36.766674 -15.265667 19.894016
4849310000 -19.736444 143.8064 -2.509094 31.691296 -2.5050101 31.699295 -14.071869 23.719494
4858305000 -17.519852 136.79692 -2.6853774 26.37443 -2.681927 26.384642 -13.107425 25.665066
4867300000 -15.608346 131.18579 -2.8986154 20.849672 -2.8959475 20.853197 -12.263381 24.907965
4876295000 -13.833835 125.98124 -3.1613448 15.148967 -3.158102 15.15639 -11.365684 21.68935
4885290000 -12.187036 120.40383 -3.4744895 9.3288116 -3.470968 9.3414421 -10.308622 17.224842
4894285000 -10.716355 114.20973 -3.8312924 3.4316759 -3.8270245 3.4482946 -9.1391211 12.946729
4903280000 -9.4550514 107.65455 -4.228837 -2.5298386 -4.2241263 -2.5181377 -8.0168304 9.4282494
4912275000 -8.3910561 101.09695 -4.6679783 -8.6336746 -4.6625967 -8.6289682 -7.0782285 6.1487355
4921270000 -7.4675698 94.764282 -5.1653738 -14.913602 -5.1604576 -14.915442 -6.364893 2.274967
4930265000 -6.6374421 88.679901 -5.7402439 -21.284128 -5.7360024 -21.27891 -5.8304119 -2.7156456
4939260000 -5.8770275 82.693794 -6.4065304 -27.555651 -6.4024887 -27.549547 -5.3651228 -8.7354975
4948255000 -5.1931477 76.673347 -7.1507716 -33.606117 -7.144063 -33.58252 -4.8607893 -15.089705
4957250000 -4.5987887 70.68573 -7.9418378 -39.348595 -7.9351473 -39.328838 -4.2964649 -20.860313
4966245000 -4.0952673 64.814804 -8.7635183 -44.889858 -8.7559824 -44.881393 -3.7537625 -25.819893
4975240000 -3.6711051 59.160347 -9.6187725 -50.392563 -9.6131821 -50.3992 -3.3285325 -30.401186
4984235000 -3.308794 53.75666 -10.530993 -55.903488 -10.527705 -55.908161 -3.0627167 -35.186401
4993230000 -2.9904928 48.58839 -11.528691 -61.262802 -11.523459 -61.253685 -2.9342413 -40.541428
5002225000 -2.7118123 43.63089 -12.611279 -66.256516 -12.603813 -66.224159 -2.8458338 -46.331955
5011220000 -2.4701555 38.865906 -13.750175 -70.724091 -13.742886 -70.707321 -2.6932538 -52.000088
5020215000 -2.2623637 34.281322 -14.912125 -74.732651 -14.902823 -74.721901 -2.4531622 -56.935963
5029210000 -2.0848904 29.890905 -16.083027 -78.47509 -16.07324 -78.478233 -2.195668 -61.126205
5038205000 -1.9320717 25.71596 -17.280689 -82.153358 -17.274784 -82.172173 -2.0126026 -65.006035
5047200000 -1.7988262 21.714201 -18.54604 -85.799133 -18.541353 -85.783699 -1.9550772 -69.084724
5056195000 -1.680019 17.884905 -19.905024 -89.169899 -19.902412 -89.129303 -2.0061274 -73.68969
5065190000 -1.5752662 14.247437 -21.369913 -91.979362 -21.359852 -91.944458 -2.0678632 -78.655457
5074185000 -1.4863492 10.737386 -22.906157 -94.06488 -22.89506 -94.078308 -2.0394888 -83.462029
5083180000 -1.4068892 7.3337007 -24.491585 -95.460976 -24.480534 -95.450378 -1.903411 -87.596504
5092175000 -1.3366803 4.0647159 -26.126242 -96.187782 -26.122967 -96.240639 -1.7262965 -91.061531
5101170000 -1.2733132 0.90591586 -27.856617 -96.384995 -27.846802 -96.403786 -1.6095786 -94.26783
5110165000 -1.2136345 -2.1591101 -29.721262 -95.666412 -29.707649 -95.689934 -1.6150671 -97.722511
5119160000 -1.1589423 -5.0915499 -31.746302 -93.321739 -31.726234 -93.334671 -1.7229161 -101.73512
5128155000 -1.1098676 -7.9023299 -33.874485 -88.450981 -33.875805 -88.533806 -1.8364764 -106.14747
5137150000 -1.0693315 -10.664846 -35.970512 -79.932442 -35.987255 -80.013115 -1.8550429 -110.43328
5146145000 -1.031359 -13.358425 -37.758324 -67.259178 -37.760475 -67.346161 -1.7483083 -114.12441
5155140000 -0.99593985 -15.950751 -38.760757 -51.414017 -38.782997 -51.537937 -1.5892335 -117.15113
5164135000 -0.96165001 -18.506783 -38.888866 -36.473125 -38.897781 -36.264629 -1.480646 -119.92878
5173130000 -0.9275592 -21.004042 -38.370686 -24.804018 -38.395004 -24.779453 -1.4975773 -122.98809
5182125000 -0.89535707 -23.389765 -37.658119 -17.120846 -37.667019 -17.027313 -1.6219338 -126.63312
5191120000 -0.8685993 -25.715792 -36.996597 -12.17051 -36.986954 -12.26821 -1.7626337 -130.73593
5200115000 -0.84625947 -28.029058 -36.425262 -9.1520004 -36.446369 -9.2453079 -1.8058028 -134.79306
5209110000 -0.8246581 -30.272646 -35.969788 -7.2164006 -35.968132 -7.1881185 -1.7148982 -138.26576
5218105000 -0.80170441 -32.480003 -35.568466 -6.2451496 -35.564911 -6.2224965 -1.5548239 -141.05222
5227100000 -0.78143466 -34.654079 -35.242401 -6.1589432 -35.23114 -6.2351456 -1.4357398 -143.53906
5236095000 -0.75721681 -36.761215 -35.023651 -6.9640613 -35.025799 -6.9728651 -1.4392009 -146.27914
5245090000 -0.7367655 -38.791477 -34.94239 -8.1378241 -34.951508 -8.1252613 -1.5627469 -149.5835
5254085000 -0.72205961 -40.790844 -34.974869 -9.3094645 -34.967541 -9.3603125 -1.7193264 -153.42117
5263080000 -0.70820558 -42.796829 -35.098431 -10.472713 -35.099354 -10.45612 -1.7876878 -157.31778
5272075000 -0.69462037 -44.768925 -35.252323 -11.53123 -35.233276 -11.495108 -1.7130594 -160.67818
5281070000 -0.68233562 -46.707207 -35.400105 -12.647916 -35.412834 -12.669783 -1.5560093 -163.34439
5290065000 -0.66652399 -48.638172 -35.584866 -14.040312 -35.577469 -14.020253 -1.4216775 -165.66284
5299060000 -0.65040833 -50.523014 -35.820339 -15.669778 -35.810978 -15.925798 -1.4028784 -168.14081
5308055000 -0.63437206 -52.329746 -36.131035 -17.713591 -36.15366 -17.638229 -1.515716 -171.16206
5317050000 -0.62475443 -54.123379 -36.577915 -19.482243 -36.578995 -19.438368 -1.6822507 -174.7769
5326045000 -0.61624116 -55.906605 -37.058033 -20.847279 -37.067738 -20.803192 -1.7739525 -178.51991
5335040000 -0.60758615 -57.64851 -37.574886 -22.076149 -37.550533 -22.12085 -1.7219478 178.18256
5344035000 -0.60090429 -59.403221 -38.062275 -23.254768 -38.054424 -23.163639 -1.5660319 175.56609
5353030000 -0.59100336 -61.144215 -38.599289 -24.599144 -38.55724 -24.521196 -1.4130622 173.38724
5362025000 -0.5768947 -62.819763 -39.153164 -26.059671 -39.153111 -26.053995 -1.3676476 171.15633
5371020000 -0.56783378 -64.451378 -39.816612 -27.505423 -39.826939 -27.79001 -1.463994 168.39795
5380015000 -0.56193775 -66.088837 -40.610916 -29.083618 -40.613968 -29.098204 -1.6347051 165.03703
5389010000 -0.55656374 -67.722321 -41.469559 -30.167509 -41.460205 -30.273598 -1.7495517 161.45993
5398005000 -0.55184644 -69.321419 -42.342079 -30.455997 -42.370171 -30.498865 -1.7238084 158.2169
5407000000 -0.54839736 -70.93219 -43.320351 -30.624264 -43.309898 -30.614527 -1.5750638 155.61867
5415995000 -0.53961313 -72.548035 -44.338352 -30.709692 -44.332161 -30.988197 -1.4018029 153.56169
5424990000 -0.52917176 -74.081581 -45.39917 -31.195431 -45.44268 -31.008936 -1.3227788 151.56737
5433985000 -0.5224514 -75.585777 -46.781765 -30.503546 -46.751518 -30.828161 -1.3935324 149.1058
5442980000 -0.51993847 -77.104843 -48.302864 -29.3375 -48.225357 -28.867006 -1.5627472 146.03603
5451975000 -0.51770192 -78.607292 -50.029152 -26.132885 -50.02832 -26.185345 -1.7025791 142.64937
5460970000 -0.5163449 -80.096283 -51.938213 -20.523302 -51.946743 -20.475365 -1.7100301 139.42422
5469965000 -0.51353359 -81.611763 -53.974789 -11.338545 -54.032688 -11.233928 -1.5753459 136.81184
5478960000 -0.50754637 -83.097664 -56.040878 3.8250439 -56.032471 4.024219 -1.3870051 134.81886
5487955000 -0.49937892 -84.519592 -57.155624 26.244989 -57.164356 26.264183 -1.2743686 133.02007
5496950000 -0.49645409 -85.931664 -56.593769 49.558762 -56.670731 49.56897 -1.3137044 130.86116
5505945000 -0.49489623 -87.345184 -54.939629 65.721886 -54.997345 66.225342 -1.4713824 128.12978
5514940000 -0.49353877 -88.739326 -53.224316 75.559921 -53.220963 75.810913 -1.6375922 124.99267
5523935000 -0.49352631 -90.140282 -51.678226 81.481308 -51.69997 81.832535 -1.6852322 121.81474
5532930000 -0.49131379 -91.561111 -50.318851 85.300575 -50.331184 85.536499 -1.5705423 119.1668
5541925000 -0.48871359 -92.947838 -49.129925 87.400383 -49.136688 87.652794 -1.3715088 117.19501
5550920000 -0.4839395 -94.297592 -48.087658 88.320381 -48.079781 88.611694 -1.2229353 115.56421
5559915000 -0.48145595 -95.639191 -47.215942 88.414925 -47.20631 88.457932 -1.2205651 113.69904
5568910000 -0.48098919 -96.975761 -46.486519 88.02578 -46.490879 88.112747 -1.3620042 111.3233
5577905000 -0.48097095 -98.293251 -45.901463 87.56144 -45.902966 87.595871 -1.5527788 108.44122
5586900000 -0.48147559 -99.626404 -45.389202 87.08889 -45.39275 87.233551 -1.6433758 105.34929
5595895000 -0.4798604 -100.95174 -44.938667 86.855644 -44.937927 86.867012 -1.5593886 102.64463
5604890000 -0.47878593 -102.25861 -44.499714 86.71386 -44.45805 86.520531 -1.356413 100.65274
5613885000 -0.47635472 -103.53596 -44.057831 85.516945 -44.042007 85.524567 -1.1721334 99.122314
5622880000 -0.47586828 -104.82188 -43.674538 83.858337 -43.645119 83.988937 -1.1230775 97.549171
5631875000 -0.47672766 -106.10137 -43.407543 82.538292 -43.386307 82.497955 -1.2393628 95.555145
5640870000 -0.47743896 -107.36598 -43.192879 80.912125 -43.184437 81.012512 -1.4444467 92.971146
5649865000 -0.47818768 -108.63571 -43.055809 80.032639 -43.032623 80.295647 -1.5843024 90.015533
5658860000 -0.47773254 -109.90355 -42.910599 79.123383 -42.898926 79.275414 -1.5463066 87.26458
5667855000 -0.47653729 -111.14545 -42.706898 78.698929 -42.715847 78.448708 -1.3507049 85.184448
5676850000 -0.476383 -112.36871 -42.510216 77.220764 -42.501156 77.150291 -1.1328055 83.695236
5685845000 -0.47684813 -113.58979 -42.307117 75.715111 -42.317657 75.78138 -1.0292678 82.37162
5694840000 -0.47798309 -114.80831 -42.245811 73.79039 -42.241943 74.050095 -1.1056426 80.757034
5703835000 -0.47915271 -116.01992 -42.183098 72.355797 -42.221745 72.416542 -1.3132364 78.553604
5712830000 -0.48186114 -117.23073 -42.216324 71.274437 -42.185543 71.224403 -1.4977615 75.81871
5721825000 -0.48259324 -118.4394 -42.241695 70.408928 -42.214985 70.405075 -1.5181346 73.060707
5730820000 -0.48196062 -119.63145 -42.184319 69.290657 -42.158958 69.651833 -1.3526577 70.825081
5739815000 -0.48315826 -120.80944 -42.131527 68.445511 -42.12418 68.308434 -1.1134952 69.267715
5748810000 -0.48370975 -121.99435 -42.069771 66.965172 -42.074566 67.167526 -0.95365393 68.087326
5757805000 -0.48460278 -123.15905 -42.084671 65.566551 -42.080437 65.364395 -0.97990018 66.791199
5766800000 -0.48631069 -124.32678 -42.158371 63.689438 -42.178417 63.682903 -1.1703931 64.969017
5775795000 -0.48802707 -125.49786 -42.299641 62.312752 -42.290752 62.398548 -1.3916161 62.554802
5784790000 -0.48967287 -126.65213 -42.417805 61.518299 -42.38068 61.521175 -1.4806015 59.860081
5793785000 -0.49011767 -127.79068 -42.469826 60.843853 -42.468212 60.797932 -1.3627743 57.47562
5802780000 -0.49098682 -128.93416 -42.511562 59.838726 -42.486523 59.933319 -1.1153829 55.771164
5811775000 -0.4931142 -130.07858 -42.519329 58.552502 -42.577122 58.593803 -0.90689427 54.636288
5820770000 -0.4955937 -131.20985 -42.639137 56.834118 -42.664032 56.984219 -0.8643918 53.588268
5829765000 -0.49695414 -132.34009 -42.843452 55.078911 -42.818363 55.215122 -1.0164846 52.179188
5838760000 -0.49949336 -133.47092 -43.086712 54.077854 -43.049095 54.05864 -1.2604655 50.155922
5847755000 -0.50107348 -134.58926 -43.273266 53.143253 -43.276863 53.002617 -1.4186407 47.64959
5856750000 -0.5031727 -135.70558 -43.422455 52.368393 -43.401047 52.179039 -1.3712178 45.16246
5865745000 -0.50457215 -136.81863 -43.593117 51.520622 -43.574558 51.606979 -1.144942 43.238647
5874740000 -0.50680947 -137.92973 -43.650444 50.641121 -43.64587 50.789841 -0.89245415 41.992176
5883735000 -0.5093413 -139.03577 -43.761852 48.960491 -43.762951 48.816051 -0.77507198 41.081463
5892730000 -0.50995088 -140.13339 -44.069656 47.561611 -43.996746 47.341213 -0.86497718 40.027153
5901725000 -0.51217812 -141.22353 -44.320084 45.630013 -44.279839 45.946514 -1.1019979 38.459282
5910720000 -0.51565164 -142.30823 -44.640205 44.940342 -44.624279 45.02486 -1.3197975 36.281498
5919715000 -0.51658279 -143.39209 -44.923618 44.165237 -44.885471 44.13512 -1.3583803 33.820858
5928710000 -0.5189383 -144.46997 -45.160362 43.47242 -45.119694 43.717125 -1.1832601 31.677191
5937705000 -0.52147084 -145.54424 -45.3773 43.235645 -45.342484 42.799591 -0.91157675 30.191206
5946700000 -0.52110487 -146.61417 -45.573376 42.072739 -45.557846 42.078339 -0.72214365 29.252235
5955695000 -0.52466351 -147.67166 -45.897133 40.580929 -45.883762 40.758205 -0.73306894 28.4324
5964690000 -0.52651989 -148.72391 -46.307686 39.327675 -46.262962 39.761562 -0.93302453 27.291861
5973685000 -0.53165585 -149.78137 -46.638062 39.071423 -46.639946 38.734493 -1.1861284 25.538475
5982680000 -0.5348478 -150.84102 -47.008854 38.482292 -47.002087 38.735355 -1.3126031 23.264135
5991675000 -0.53682399 -151.89354 -47.387787 38.211334 -47.381229 38.310848 -1.2169193 20.958166
6000670000 -0.53851825 -152.95079 -47.699272 37.897404 -47.697292 37.955875 -0.95952475 19.170759
6009665000 -0.54016334 -154.00114 -48.022938 37.168293 -48.032009 37.192074 -0.71187431 18.05348
6018660000 -0.54145074 -155.0407 -48.415482 36.161545 -48.401779 36.20932 -0.63413477 17.327333
6027655000 -0.54483533 -156.06084 -48.918228 35.260395 -48.907719 35.173153 -0.77175516 16.535427
6036650000 -0.54925829 -157.09492 -49.466179 34.9571 -49.449467 34.804291 -1.0294863 15.289225
6045645000 -0.55263722 -158.13368 -50.009007 35.186592 -49.992096 34.970364 -1.2336091 13.393753
6054640000 -0.55422211 -159.15962 -50.516968 35.601086 -50.513691 35.213497 -1.2353557 11.075933
6063635000 -0.55573165 -160.19577 -50.939117 35.906464 -50.986546 35.596165 -1.0242903 8.9951811
6072630000 -0.55672735 -161.21729 -51.404289 35.802891 -51.461269 35.693134 -0.7431432 7.5749335
6081625000 -0.55949634 -162.22404 -51.96027 35.413727 -51.991852 35.527302 -0.58068132 6.7729053
6090620000 -0.56237024 -163.22568 -52.632362 35.488842 -52.642868 35.449135 -0.63091993 6.1903949
6099615000 -0.5675804 -164.24068 -53.375027 35.9468 -53.38229 35.960823 -0.85775614 5.4245839
6108610000 -0.57055616 -165.25314 -54.146362 37.287254 -54.16156 37.502457 -1.1122342 4.0090575
6117605000 -0.57399255 -166.26285 -54.887707 39.29818 -54.880928 39.452732 -1.2136041 1.8981959
6126600000 -0.57583493 -167.29019 -55.592308 41.492485 -55.597195 41.738281 -1.0819905 -0.37082288
6135595000 -0.575535 -168.29504 -56.324196 43.889896 -56.319134 44.410023 -0.80458993 -2.1575778
6144590000 -0.57771546 -169.27875 -57.079937 46.837837 -57.057373 47.239132 -0.57065982 -3.2308109
6153585000 -0.58133382 -170.26106 -57.994087 50.269775 -57.977524 50.453686 -0.52434689 -3.7671521
6162580000 -0.58608645 -171.26254 -58.920914 55.380466 -58.933788 55.057293 -0.68676382 -4.1936574
6171575000 -0.58724236 -172.24554 -59.8078 61.971256 -59.882156 61.698009 -0.95596182 -5.0850663
6180570000 -0.59076786 -173.23199 -60.554741 70.505486 -60.695435 70.25528 -1.1451492 -6.8008876
6189565000 -0.59287852 -174.22589 -61.003971 80.085106 -61.147545 80.208733 -1.1155308 -9.0690165
6198560000 -0.59274381 -175.20018 -61.164719 90.311592 -61.342197 90.975197 -0.88052779 -11.187401
6207555000 -0.59631151 -176.17065 -60.999649 99.893265 -61.116478 100.47022 -0.60480386 -12.656075
6216550000 -0.60233796 -177.15131 -60.591557 109.51987 -60.661003 110.04654 -0.46086869 -13.359694
6225545000 -0.60751355 -178.14635 -59.918297 117.45681 -60.055004 118.32828 -0.53667957 -13.606159
6234540000 -0.60974884 -179.12628 -59.17223 123.67258 -59.27721 124.8983 -0.77946824 -14.024656
6243535000 -0.61149323 179.90314 -58.377811 129.13205 -58.444218 130.3495 -1.0239332 -15.206544
6252530000 -0.61261415 178.91203 -57.566181 133.40721 -57.552208 134.53197 -1.0989729 -17.20941
6261525000 -0.61257571 177.96379 -56.730244 136.54031 -56.683666 137.77045 -0.94819802 -19.51977
6270520000 -0.61478502 177.02037 -55.874969 138.67433 -55.816906 139.58073 -0.67144585 -21.415188
6279515000 -0.619793 176.05177 -55.151463 139.67606 -55.055771 140.41638 -0.45251611 -22.464237
6288510000 -0.62453711 175.0844 -54.551842 140.46132 -54.437572 140.68268 -0.43058121 -22.761822
6297505000 -0.62553048 174.13029 -54.047836 141.12851 -53.929375 141.38341 -0.61215097 -22.860247
6306500000 -0.62911236 173.16351 -53.566574 142.11824 -53.461651 142.1192 -0.87456644 -23.482887
6315495000 -0.62987268 172.20589 -53.034348 142.92218 -52.944008 142.99159 -1.0396334 -25.01959
6324490000 -0.63082683 171.28264 -52.458714 143.43773 -52.379612 143.10242 -0.992845 -27.298464
6333485000 -0.6354695 170.34825 -51.889942 143.07352 -51.865559 142.91725 -0.7553556 -29.556732
6342480000 -0.64204603 169.38853 -51.408218 142.22267 -51.378777 142.0551 -0.49035269 -31.052595
6351475000 -0.64574969 168.4306 -51.053005 141.16571 -51.02449 141.08238 -0.37401 -31.616749
6360470000 -0.64801347 167.46364 -50.763809 140.36858 -50.753448 140.41284 -0.46829468 -31.618862
6369465000 -0.6493516 166.49704 -50.499043 139.98334 -50.475475 140.09067 -0.70271027 -31.749289
6378460000 -0.64804322 165.55373 -50.25296 139.69347 -50.207703 139.89609 -0.92734832 -32.667358
6387455000 -0.64566231 164.6664 -49.951412 139.50047 -49.911854 139.59784 -0.99111253 -34.630207
6396450000 -0.65137392 163.76385 -49.663509 139.0986 -49.622681 139.12547 -0.83502978 -37.05014
6405445000 -0.65718043 162.83742 -49.343769 138.31575 -49.328602 138.39781 -0.56788987 -39.020622
6414440000 -0.66198164 161.90054 -49.12521 137.16058 -49.082779 137.1465 -0.37349963 -40.04343
6423435000 -0.66530043 160.95219 -48.963848 136.0424 -48.925529 136.22537 -0.36824885 -40.21183
6432430000 -0.66740656 159.98514 -48.881569 135.48633 -48.822208 135.52689 -0.53800547 -40.05088
6441425000 -0.66437817 159.05145 -48.769356 135.27701 -48.72192 135.35844 -0.77440214 -40.374138
6450420000 -0.66407561 158.15755 -48.590084 135.50945 -48.569763 135.36575 -0.92225826 -41.791672
6459415000 -0.66848552 157.26479 -48.354538 135.28859 -48.339188 135.18858 -0.86751562 -44.07703
6468410000 -0.67506576 156.33025 -48.12508 134.70766 -48.11084 134.61523 -0.64604229 -46.377441
6477405000 -0.67792553 155.40746 -47.947784 133.66273 -47.920177 133.58847 -0.41453156 -47.934624
6486400000 -0.68207455 154.45706 -47.831699 132.70691 -47.807274 132.53426 -0.31929833 -48.458351
6495395000 -0.68143308 153.50679 -47.762245 132.04167 -47.752209 131.94286 -0.40435076 -48.269775
6504390000 -0.67853892 152.60289 -47.692673 131.97491 -47.698845 131.87875 -0.61419606 -48.157387
6513385000 -0.68061459 151.72708 -47.544144 132.08487 -47.577503 132.01682 -0.810781 -48.933872
6522380000 -0.68512166 150.8284 -47.326683 131.95944 -47.352619 131.95383 -0.85568959 -50.815155
6531375000 -0.6904363 149.91153 -47.11171 131.37646 -47.125523 131.3871 -0.71430647 -53.229134
6540370000 -0.69169801 148.99728 -46.935585 130.21092 -46.949066 130.17741 -0.48739135 -55.291737
6549365000 -0.69432396 148.06406 -46.825142 128.9357 -46.836807 128.94078 -0.32368305 -56.359055
6558360000 -0.69199127 147.13196 -46.795197 128.05444 -46.822178 128.06018 -0.31766823 -56.375694
6567355000 -0.68895596 146.24899 -46.760513 127.69789 -46.793713 127.80428 -0.46721992 -56.032322
6576350000 -0.69196695 145.39122 -46.664291 127.71704 -46.71249 127.85114 -0.66839528 -56.199383
6585345000 -0.69863915 144.48509 -46.514839 127.60147 -46.557178 127.77055 -0.79167151 -57.453518
6594340000 -0.70397371 143.58051 -46.341129 126.97697 -46.354568 127.16886 -0.7485792 -59.669788
6603335000 -0.70473635 142.66669 -46.180149 126.05707 -46.185555 126.13211 -0.56586057 -62.088127
6612330000 -0.707793 141.7321 -46.049213 124.66151 -46.073154 124.77662 -0.36649716 -63.735752
6621325000 -0.70472598 140.8129 -46.020538 123.42554 -46.04554 123.5228 -0.28087789 -64.219109
6630320000 -0.70140612 139.93724 -46.022907 122.72622 -46.059582 122.89344 -0.35377443 -63.919861
6639315000 -0.70493728 139.0787 -45.987099 122.54831 -46.019012 122.65479 -0.52523839 -63.669117
6648310000 -0.71135193 138.1909 -45.888397 122.39881 -45.906445 122.45487 -0.68705004 -64.239784
6657305000 -0.71626467 137.2971 -45.75457 121.76285 -45.767311 121.97486 -0.73497617 -65.991631
6666300000 -0.71746093 136.4014 -45.624641 120.72823 -45.635033 120.91859 -0.62685418 -68.461945
6675295000 -0.71897972 135.47554 -45.549137 119.39187 -45.544498 119.61214 -0.4333396 -70.607079
6684290000 -0.71541363 134.57327 -45.533329 118.17429 -45.53215 118.3365 -0.29019871 -71.657433
6693285000 -0.71384513 133.71652 -45.535465 117.36615 -45.552849 117.52562 -0.28256193 -71.652267
6702280000 -0.71744716 132.84792 -45.538979 117.02866 -45.561325 117.0411 -0.39835149 -71.181442
6711275000 -0.72208649 131.95041 -45.493011 116.79872 -45.523262 116.9342 -0.56487226 -71.142967
6720270000 -0.72546321 131.06487 -45.388836 116.45962 -45.414349 116.62431 -0.68088377 -72.257042
6729265000 -0.7276786 130.17526 -45.278759 115.6291 -45.299797 115.77265 -0.65774059 -74.491684
6738260000 -0.72807103 129.26366 -45.200439 114.51286 -45.215881 114.71815 -0.50449216 -76.934433
6747255000 -0.72305566 128.38577 -45.158089 113.33637 -45.196766 113.60028 -0.33337161 -78.589905
6756250000 -0.72179121 127.53735 -45.18288 112.15526 -45.218632 112.4264 -0.25651687 -79.108047
6765245000 -0.72863734 126.67147 -45.218578 111.545 -45.254379 111.8199 -0.30303192 -78.742294
6774240000 -0.7326957 125.77533 -45.223171 111.35094 -45.239784 111.60899 -0.44006255 -78.322617
6783235000 -0.73360896 124.89624 -45.161617 111.06021 -45.179455 111.29209 -0.58674484 -78.777496
6792230000 -0.73622817 124.01678 -45.056587 110.7373 -45.087036 110.54326 -0.64118123 -80.509109
6801225000 -0.73636645 123.10906 -45.007622 109.66602 -45.015892 109.52457 -0.55359805 -82.944511
6810220000 -0.73109978 122.26093 -45.040905 108.10447 -45.007824 108.1468 -0.39654678 -85.086685
6819215000 -0.73062408 121.4322 -45.021954 107.25748 -45.03997 107.00701 -0.27096093 -86.1642
6828210000 -0.73533946 120.56689 -45.101433 106.05472 -45.096321 106.13046 -0.25013745 -86.110992
6837205000 -0.73909074 119.67788 -45.14344 105.72933 -45.14257 105.72906 -0.34131172 -85.556183
6846200000 -0.74228382 118.79759 -45.135014 105.46961 -45.127987 105.41092 -0.48546591 -85.459518
6855195000 -0.74307561 117.91112 -45.05798 105.04565 -45.081802 104.88106 -0.58911234 -86.552742
6864190000 -0.74174792 117.01204 -44.983978 104.08247 -45.01466 104.0103 -0.57539517 -88.688835
6873185000 -0.73815024 116.16424 -44.966808 103.19862 -44.996777 102.91172 -0.45519418 -91.089401
6882180000 -0.73708481 115.35016 -44.995235 101.81048 -45.024761 101.63306 -0.31087998 -92.759827
6891175000 -0.74299264 114.47473 -45.062336 100.74305 -45.098343 100.81718 -0.23408902 -93.202522
6900170000 -0.74590027 113.60175 -45.128677 100.09374 -45.158978 100.16736 -0.26753062 -92.771919
6909165000 -0.74775654 112.71938 -45.143703 99.829567 -45.180294 99.78421 -0.38634831 -92.349396
6918160000 -0.7496736 111.83654 -45.104866 99.273369 -45.15004 99.415298 -0.51123077 -92.804108
6927155000 -0.7470718 110.94167 -45.070148 98.559685 -45.101933 98.734795 -0.55944216 -94.429535
6936150000 -0.74142122 110.10981 -45.030033 97.338745 -45.065422 97.60231 -0.4986887 -96.794434
6945145000 -0.74119461 109.27142 -45.069984 96.096481 -45.109238 96.305466 -0.36697489 -98.888153
6954140000 -0.74609607 108.42733 -45.173889 95.098549 -45.198856 95.304604 -0.25538591 -99.913689
6963135000 -0.7487877 107.5594 -45.269135 94.311684 -45.29718 94.593285 -0.23440266 -99.829346
6972130000 -0.7495755 106.69859 -45.35342 93.893631 -45.352592 94.247551 -0.30915573 -99.322693
6981125000 -0.74917895 105.8107 -45.370895 93.642662 -45.37682 93.941948 -0.42823109 -99.266464
6990120000 -0.74483263 104.95104 -45.333839 93.112953 -45.340778 93.384399 -0.51707906 -100.27357
6999115000 -0.74204946 104.13755 -45.290924 92.111641 -45.325371 92.4048 -0.51631868 -102.35869
7008110000 -0.74512458 103.32395 -45.320759 90.897163 -45.350163 91.157616 -0.41985804 -104.66319
7017105000 -0.7479583 102.48512 -45.4174 89.764572 -45.450008 89.921684 -0.29683217 -106.21121
7026100000 -0.75059229 101.62829 -45.534542 88.798386 -45.567425 89.101837 -0.23292454 -106.64198
7035095000 -0.75339293 100.756 -45.641552 88.355667 -45.671944 88.657471 -0.25923499 -106.28016
7044090000 -0.7542665 99.879089 -45.701023 88.147949 -45.731056 88.41069 -0.34987518 -105.90074
7053085000 -0.74923033 99.02449 -45.693722 87.612335 -45.716938 88.029739 -0.45386398 -106.32456
7062080000 -0.74557078 98.201584 -45.663147 86.794273 -45.692261 87.296364 -0.50277418 -107.89705
7071075000 -0.74777806 97.376328 -45.689377 85.710136 -45.685741 86.106087 -0.45746198 -110.14563
7080070000 -0.75172108 96.516014 -45.775822 84.526443 -45.750034 84.914207 -0.35129008 -112.10673
7089065000 -0.7541846 95.666656 -45.891888 83.463966 -45.88018 83.771591 -0.26149485 -113.12114
7098060000 -0.75447839 94.791313 -46.032112 82.83326 -46.028992 83.177925 -0.23844565 -113.12196
7107055000 -0.75316203 93.905937 -46.11277 82.502815 -46.122665 82.772011 -0.28945351 -112.67087
7116050000 -0.74739188 93.068924 -46.155319 82.067062 -46.153198 82.448982 -0.38676199 -112.62907
7125045000 -0.7457515 92.26088 -46.1605 81.564613 -46.151356 81.953537 -0.46407524 -113.60521
7134040000 -0.746512 91.453918 -46.181911 80.658615 -46.144135 80.890297 -0.46854785 -115.51479
7143035000 -0.74887073 90.628319 -46.236279 79.53318 -46.212845 79.70639 -0.39782548 -117.65791
7152030000 -0.75075907 89.800018 -46.360657 78.470375 -46.357433 78.462952 -0.30361235 -119.19495
7161025000 -0.75214273 88.923996 -46.49987 77.521111 -46.504967 77.511543 -0.24462582 -119.68448
7170020000 -0.74981606 88.078133 -46.642002 76.901291 -46.662792 77.017296 -0.25582436 -119.40647
7179015000 -0.74408996 87.247765 -46.747952 76.529221 -46.767597 76.82373 -0.32634616 -119.11309
7188010000 -0.74372256 86.441696 -46.786388 76.150658 -46.808018 76.346489 -0.4116132 -119.54881
7197005000 -0.745655 85.60379 -46.812538 75.437935 -46.826851 75.729263 -0.4541367 -120.98338
7206000000 -0.74939948 84.77813 -46.878567 74.307404 -46.870102 74.57048 -0.42819968 -123.04365
7214995000 -0.75020093 83.927887 -46.981354 73.125648 -47.003632 73.368866 -0.35070771 -124.91941
7223990000 -0.74995786 83.053177 -47.144711 72.18615 -47.16481 72.473236 -0.27349454 -125.92108
7232985000 -0.7482627 82.212273 -47.305878 71.53373 -47.331097 71.902733 -0.24575947 -125.96096
7241980000 -0.74202001 81.3881 -47.439735 71.075424 -47.450768 71.490433 -0.28292495 -125.61277
7250975000 -0.74189901 80.597801 -47.519981 70.682076 -47.511383 71.056419 -0.3574464 -125.62364
7259970000 -0.74468392 79.763474 -47.579372 70.172249 -47.555408 70.561798 -0.42352813 -126.52442
7268965000 -0.74595898 78.948212 -47.604713 69.470764 -47.604908 69.737297 -0.44140571 -128.31375
7277960000 -0.74639887 78.110176 -47.69017 68.420898 -47.697903 68.644821 -0.39460054 -130.36145
7286955000 -0.74496597 77.240982 -47.813622 67.353912 -47.837311 67.584076 -0.31474325 -131.82819
7295950000 -0.74020272 76.415657 -47.981636 66.488937 -48.006439 66.811546 -0.25895169 -132.32927
7304945000 -0.73641336 75.604088 -48.126537 65.813942 -48.141117 66.247688 -0.25894675 -132.13795
7313940000 -0.73570955 74.789551 -48.232826 65.312096 -48.272873 65.710625 -0.3088575 -131.91396
7322935000 -0.73821312 73.976936 -48.331001 64.888924 -48.349308 65.077637 -0.38235271 -132.31136
7331930000 -0.74040347 73.158463 -48.425266 63.898647 -48.426746 64.177765 -0.43102258 -133.65581
7340925000 -0.74184155 72.324974 -48.543621 62.852749 -48.554626 63.225533 -0.42349616 -135.62997
7349920000 -0.74154311 71.470047 -48.713902 61.950314 -48.732674 62.164368 -0.3606163 -137.424
7358915000 -0.73664957 70.633736 -48.900986 61.134026 -48.929745 61.244572 -0.29153064 -138.40765
7367910000 -0.7315467 69.840439 -49.079998 60.396263 -49.108868 60.582905 -0.26025867 -138.52969
7376905000 -0.73095733 69.036957 -49.271378 59.815758 -49.282085 59.984348 -0.27982229 -138.25778
7385900000 -0.73115152 68.231743 -49.405945 59.269089 -49.405594 59.47847 -0.34042862 -138.29552
7394895000 -0.73319763 67.43129 -49.511898 58.657112 -49.535728 58.709747 -0.40609416 -139.16312
7403890000 -0.73464411 66.596161 -49.630474 57.634647 -49.661362 57.733925 -0.43001986 -140.84676
7412885000 -0.73419106 65.745949 -49.807228 56.361652 -49.828499 56.61338 -0.39604312 -142.75096
7421880000 -0.72987223 64.918617 -50.018311 55.207867 -50.031433 55.467125 -0.33055589 -144.13782
7430875000 -0.72767955 64.099396 -50.274754 54.379543 -50.297394 54.606838 -0.27723777 -144.66238
7439870000 -0.72682875 63.279793 -50.478554 53.79594 -50.515938 54.035 -0.2695221 -144.5406
7448865000 -0.72778392 62.466629 -50.641682 53.286972 -50.694027 53.629375 -0.30918354 -144.38351
7457860000 -0.72723454 61.653175 -50.778641 52.375584 -50.801182 52.768867 -0.3757565 -144.8329
7466855000 -0.72755498 60.839966 -50.914982 51.301434 -50.939457 51.567818 -0.42333493 -146.14137
7475850000 -0.72431308 60.022427 -51.076092 50.040634 -51.123749 50.25671 -0.42112964 -147.97134
7484845000 -0.72143543 59.223736 -51.29533 48.485909 -51.335251 48.903114 -0.37232763 -149.63942
7493840000 -0.7202754 58.43108 -51.584393 47.091984 -51.596485 47.438942 -0.30983567 -150.5751
7502835000 -0.72021121 57.609974 -51.854431 45.82373 -51.88015 46.338005 -0.27798724 -150.73042
7511830000 -0.72093451 56.801056 -52.08802 44.57449 -52.124203 45.187592 -0.29329053 -150.54849
7520825000 -0.72146481 55.983234 -52.315746 43.087025 -52.347198 43.47332 -0.34678012 -150.68982
7529820000 -0.72109801 55.158146 -52.540386 40.97921 -52.603539 41.49926 -0.40507674 -151.57663
7538815000 -0.7178756 54.356186 -52.864212 38.476227 -52.904266 39.10503 -0.43151373 -153.16754
7547810000 -0.7151866 53.581074 -53.282585 35.783588 -53.308807 36.634987 -0.40740895 -154.93869
7556805000 -0.71503216 52.793388 -53.759804 33.330128 -53.776119 33.88308 -0.35189691 -156.23158
7565800000 -0.71609187 51.995167 -54.345524 30.46376 -54.3223 31.353216 -0.30188766 -156.73145
7574795000 -0.71815717 51.177711 -54.967453 28.174036 -54.931087 28.712824 -0.29150599 -156.67427
7583790000 -0.71936923 50.365356 -55.566841 25.699322 -55.592693 26.172754 -0.32613993 -156.63116
7592785000 -0.71797454 49.539478 -56.234459 22.339008 -56.267658 22.985407 -0.38280985 -157.1364
7601780000 -0.71257794 48.741375 -57.030048 18.948296 -57.058125 19.51149 -0.4276289 -158.39697
7610775000 -0.70928317 47.980949 -57.955181 14.814865 -57.967728 15.680363 -0.43101656 -160.09761
7619770000 -0.70867854 47.20882 -59.092434 10.281044 -59.084007 10.897326 -0.3910208 -161.63647
7628765000 -0.71020281 46.426525 -60.445244 5.466423 -60.505466 6.8918109 -0.33517373 -162.50391
7637760000 -0.7107147 45.633049 -62.108707 1.2263426 -62.161282 2.9947565 -0.30414039 -162.69846
7646755000 -0.71122539 44.813168 -63.90955 -3.3003471 -64.130226 -0.95839101 -0.31422478 -162.62195
7655750000 -0.70807087 43.989746 -66.115311 -8.7753706 -66.381607 -5.3912559 -0.35678875 -162.83818
7664745000 -0.70283842 43.200703 -68.698364 -16.874752 -69.171837 -11.942576 -0.41040072 -163.72519
7673740000 -0.69765049 42.432251 -71.98864 -29.790766 -72.50975 -20.846407 -0.43728304 -165.22156
7682735000 -0.6962142 41.663124 -75.966347 -52.147663 -77.108444 -41.158772 -0.42026892 -166.86156
7691730000 -0.69613367 40.872574 -77.510773 -90.802841 -79.912598 -90.66626 -0.37313968 -168.06155
7700725000 -0.69540232 40.075783 -75.061043 -127.2477 -76.977005 -132.75822 -0.3265976 -168.5798
7709720000 -0.69372225 39.257744 -71.908829 -143.14893 -73.138756 -147.39574 -0.31447664 -168.62152
7718715000 -0.69087851 38.448898 -69.661453 -151.87018 -70.432755 -155.02582 -0.33960333 -168.67946
7727710000 -0.68538201 37.653683 -67.683647 -155.39453 -68.301857 -157.99109 -0.38870785 -169.2368
7736705000 -0.68286663 36.886345 -65.913177 -158.18207 -66.479607 -160.16475 -0.43205211 -170.44794
7745700000 -0.68267 36.129612 -64.598381 -161.03835 -65.114906 -161.56625 -0.43972713 -172.03279
7754695000 -0.68293935 35.351723 -63.679268 -161.69238 -63.987305 -161.7067 -0.40951854 -173.45586
7763690000 -0.68360615 34.555439 -62.706787 -161.11398 -62.979374 -160.93037 -0.36099857 -174.29628
7772685000 -0.68446857 33.737644 -61.673965 -160.23003 -61.887482 -159.86336 -0.32823133 -174.54242
7781680000 -0.68218505 32.921906 -60.68483 -159.98581 -60.82983 -159.23463 -0.33177924 -174.56842
7790675000 -0.67670536 32.137989 -59.709644 -159.97853 -59.772869 -159.23689 -0.36966383 -174.87892
7799670000 -0.67493087 31.370537 -58.83334 -159.95062 -58.8853 -159.95222 -0.42001599 -175.78336
7808665000 -0.6734159 30.608198 -57.965298 -160.49266 -57.989719 -160.33379 -0.44942313 -177.21938
7817660000 -0.67316264 29.854248 -57.135723 -161.2558 -57.179989 -161.29457 -0.44042122 -178.74448
7826655000 -0.67467296 29.084429 -56.405766 -161.91522 -56.500469 -162.15289 -0.3988764 -179.86899
7835650000 -0.67379922 28.29224 -55.730579 -162.72321 -55.804695 -162.66698 -0.3542982 179.63078
7844645000 -0.67175007 27.505758 -55.06934 -163.07301 -55.130722 -163.15756 -0.33484852 179.55205
7853640000 -0.66765684 26.727047 -54.286194 -163.98149 -54.363571 -164.1653 -0.35570443 179.42604
7862635000 -0.66474617 25.964426 -53.614365 -165.75343 -53.686062 -165.99117 -0.40292075 178.83371
7871630000 -0.66311985 25.208229 -52.991634 -167.54149 -53.087627 -167.63391 -0.44744474 177.64133
7880625000 -0.6612156 24.457726 -52.441299 -169.60764 -52.551147 -169.61028 -0.4610005 176.12411
7889620000 -0.65916246 23.683325 -51.947834 -171.54747 -52.051601 -171.30339 -0.4349708 174.77931
7898615000 -0.65662456 22.905445 -51.530384 -173.53714 -51.616203 -173.31166 -0.38691705 173.98311
7907610000 -0.65172791 22.13055 -51.189884 -175.38713 -51.248055 -175.02898 -0.35147923 173.71735
7916605000 -0.64733046 21.354454 -50.879314 -176.72162 -50.922314 -176.38075 -0.35022956 173.64325
7925600000 -0.64398879 20.586245 -50.529842 -178.00493 -50.602623 -177.70703 -0.3861658 173.27779
7934595000 -0.64152062 19.812931 -50.154507 -179.32869 -50.240383 -179.16882 -0.43703368 172.34883
7943590000 -0.63811022 19.041172 -49.822163 178.92786 -49.897675 179.3062 -0.47006944 170.95461
7952585000 -0.63541466 18.27305 -49.548882 177.26033 -49.632393 177.7251 -0.46411443 169.50665
7961580000 -0.63317871 17.499241 -49.30167 175.94203 -49.373974 176.36897 -0.42442602 168.45
7970575000 -0.62776488 16.737473 -49.091587 174.6936 -49.160774 175.1994 -0.3771621 167.96024
7979570000 -0.6239863 15.979721 -48.918129 173.45728 -48.937782 174.22844 -0.35574543 167.83873
7988565000 -0.62131238 15.206503 -48.732979 172.54568 -48.72068 173.02942 -0.37441573 167.64227
7997560000 -0.61761934 14.443839 -48.5117 171.67882 -48.52599 171.9222 -0.42233315 166.96831
8006555000 -0.61609352 13.677608 -48.265263 170.71947 -48.297359 170.96857 -0.46807986 165.76852
8015550000 -0.61396766 12.90462 -48.035355 169.64453 -48.099419 169.88861 -0.48419097 164.30418
8024545000 -0.61165655 12.134585 -47.854424 168.46852 -47.919456 168.83119 -0.4595733 163.03894
8033540000 -0.60736823 11.369678 -47.700417 167.53793 -47.750153 167.90598 -0.41123101 162.29012
8042535000 -0.60401964 10.610933 -47.557365 166.75374 -47.592869 167.30859 -0.37310696 162.03593
8051530000 -0.6016829 9.8545237 -47.380608 166.19856 -47.41375 166.69028 -0.37089458 161.90005
8060525000 -0.5993011 9.0865326 -47.201752 165.40909 -47.250736 165.94408 -0.40467808 161.4753
8069520000 -0.59523928 8.3215847 -47.017681 164.72214 -47.056751 165.2005 -0.45483714 160.53645
8078515000 -0.59347379 7.5547299 -46.824745 163.77916 -46.865456 164.12019 -0.48914671 159.18565
8087510000 -0.58972669 6.794085 -46.661797 162.7937 -46.6991 163.3524 -0.48691875 157.80864
8096505000 -0.5853613 6.0400863 -46.518867 161.9505 -46.547077 162.6366 -0.44931719 156.81956
8105500000 -0.58314919 5.2889318 -46.37347 161.4221 -46.395397 162.05685 -0.40478632 156.34035
8114495000 -0.58234251 4.533689 -46.217911 160.96693 -46.237946 161.47171 -0.3837378 156.14984
8123490000 -0.57965118 3.7755485 -46.046715 160.30493 -46.069077 160.81932 -0.39770859 155.85175
8132485000 -0.5772258 3.0097351 -45.865944 159.49997 -45.912029 160.11247 -0.44063267 155.13898
8141480000 -0.57430214 2.2533743 -45.719795 158.70787 -45.753922 159.27763 -0.48671317 153.97008
8150475000 -0.56961638 1.5018133 -45.576134 157.86371 -45.607533 158.50208 -0.5039773 152.59389
8159470000 -0.56615633 0.76430368 -45.442627 157.04095 -45.45369 157.77489 -0.48281398 151.43353
8168465000 -0.56360382 0.017526003 -45.320587 156.57985 -45.321484 157.15303 -0.439331 150.73732
8177460000 -0.56119829 -0.73447669 -45.167332 156.26091 -45.178478 156.76378 -0.403878 150.4333
8186455000 -0.55840379 -1.4912267 -45.007607 155.61819 -45.010029 156.36357 -0.3988398 150.19693
8195450000 -0.55594611 -2.2481904 -44.852539 155.03255 -44.8563 155.54411 -0.42759207 149.68471
8204445000 -0.55247492 -3.0044365 -44.708622 154.30275 -44.699722 154.85341 -0.47392428 148.71242
8213440000 -0.54816943 -3.7656553 -44.568142 153.40495 -44.551479 154.07997 -0.5083285 147.41405
8222435000 -0.54478341 -4.505805 -44.448425 152.61333 -44.42337 153.26593 -0.51010108 146.14607
8231430000 -0.54205805 -5.2475801 -44.3396 152.02049 -44.309097 152.55899 -0.47813594 145.2226
8240425000 -0.5388813 -6.0032282 -44.195522 151.66197 -44.170815 152.21127 -0.43675172 144.72592
8249420000 -0.5364086 -6.7527676 -44.032822 151.12694 -44.004776 151.54028 -0.41075611 144.46448
8258415000 -0.53326356 -7.5005593 -43.885567 150.48618 -43.854393 150.88707 -0.41991904 144.09703
8267410000 -0.52902734 -8.2452822 -43.751335 149.75696 -43.72514 150.1226 -0.45888045 143.33934
8276405000 -0.52623063 -8.9778728 -43.634399 148.94592 -43.61945 149.38208 -0.50116181 142.1964
8285400000 -0.52208561 -9.7233629 -43.534088 147.99178 -43.509121 148.58339 -0.52331716 140.91174
8294395000 -0.52039891 -10.463961 -43.43021 147.44002 -43.416618 147.73987 -0.51018548 139.8279
8303390000 -0.51722455 -11.209274 -43.294052 147.06601 -43.260044 147.24129 -0.47276846 139.13387
8312385000 -0.51451933 -11.957239 -43.188297 146.53032 -43.153912 146.55678 -0.43289313 138.77499
8321380000 -0.51063734 -12.712424 -43.100094 146.39566 -43.021252 145.97354 -0.42144281 138.47375
8330375000 -0.5065788 -13.450995 -42.930294 145.31462 -42.951618 145.51646 -0.44510669 137.89931
8339370000 -0.50381857 -14.184737 -42.778816 144.53502 -42.787537 144.63889 -0.48967287 136.93938
8348365000 -0.50035828 -14.91713 -42.745155 143.41078 -42.667645 143.61674 -0.52900863 135.7003
8357360000 -0.4968932 -15.653072 -42.5863 142.87888 -42.577225 142.96614 -0.53863078 134.49123
8366355000 -0.49476251 -16.397123 -42.54306 142.41417 -42.533958 142.30362 -0.51073462 133.59331
8375350000 -0.49244151 -17.145981 -42.459129 141.83589 -42.388069 141.97258 -0.46701151 133.07054
8384345000 -0.48816785 -17.895924 -42.333553 141.30827 -42.234692 141.19829 -0.43597665 132.75719
8393340000 -0.48417738 -18.631126 -42.194386 141.08699 -42.121517 140.90483 -0.43921614 132.3376
8402335000 -0.4803412 -19.362497 -42.017628 140.5274 -42.002575 140.0453 -0.47312868 131.56657
8411330000 -0.47711998 -20.088047 -41.923462 139.2417 -41.922001 139.27747 -0.52168864 130.46004
8420325000 -0.47469115 -20.819094 -41.856777 138.27327 -41.831337 138.2713 -0.55097711 129.22475
8429320000 -0.4710601 -21.552885 -41.776669 137.70834 -41.783264 137.86263 -0.54019529 128.17024
8438315000 -0.46748945 -22.293707 -41.685722 137.186 -41.674236 137.49155 -0.50085586 127.47692
8447310000 -0.46352482 -23.036177 -41.587166 137.1532 -41.553497 136.93089 -0.45859823 127.09512
8456305000 -0.46051377 -23.775723 -41.446815 136.30772 -41.433315 136.4503 -0.44027168 126.75439
8465300000 -0.45799237 -24.508961 -41.330929 135.6456 -41.350262 135.80724 -0.46129325 126.16224
8474295000 -0.45379701 -25.23786 -41.192451 135.03128 -41.224689 135.11497 -0.50854737 125.20193
8483290000 -0.45077896 -25.962452 -41.146008 134.14333 -41.15937 134.25662 -0.55216217 123.97495
8492285000 -0.44888487 -26.698242 -41.048683 133.31004 -41.057579 133.46822 -0.56453353 122.78007
8501280000 -0.44507572 -27.423439 -41.002975 132.7565 -40.951168 132.69269 -0.53682774 121.89361
8510275000 -0.44099197 -28.15914 -40.914127 132.24051 -40.8978 132.29529 -0.49134392 121.36711
8519270000 -0.43857035 -28.884399 -40.820004 131.96935 -40.766277 131.92078 -0.45511857 121.02788
8528265000 -0.43420002 -29.611668 -40.6782 131.47299 -40.631367 131.44913 -0.45607188 120.58276
8537260000 -0.43183279 -30.335991 -40.54324 130.29694 -40.524685 130.71095 -0.49238351 119.7975
8546255000 -0.42771518 -31.066584 -40.475636 129.87222 -40.478443 129.91026 -0.54224837 118.68611
8555250000 -0.42348331 -31.785891 -40.418629 129.18263 -40.38567 128.79706 -0.57399076 117.47117
8564245000 -0.41886672 -32.507019 -40.371258 128.38409 -40.315502 128.31992 -0.56629145 116.44395
8573240000 -0.41679704 -33.219501 -40.273754 127.97337 -40.25819 127.92436 -0.52609324 115.77454
8582235000 -0.41316167 -33.940407 -40.16851 127.25652 -40.105896 127.13109 -0.48183078 115.36762
8591230000 -0.41090974 -34.667465 -40.025532 126.84654 -39.985703 126.78099 -0.46253702 114.98466
8600225000 -0.40927958 -35.392635 -39.915257 126.05953 -39.903038 126.20872 -0.48450324 114.35989
8609220000 -0.40536517 -36.123325 -39.828171 125.43573 -39.813305 125.19859 -0.53109735 113.36507
8618215000 -0.40042773 -36.847557 -39.742088 124.74519 -39.716789 124.26398 -0.57258087 112.16541
8627210000 -0.39632329 -37.568138 -39.669064 123.77371 -39.667885 123.78125 -0.58263969 111.03989
8636205000 -0.39429381 -38.286392 -39.635525 123.21696 -39.555309 123.20244 -0.5560897 110.19669
8645200000 -0.39169809 -39.006096 -39.522152 122.49448 -39.512169 122.555 -0.51156479 109.6897
8654195000 -0.38881144 -39.725418 -39.396717 122.31381 -39.367931 122.03948 -0.48071477 109.32814
8663190000 -0.38649601 -40.455467 -39.293549 121.51737 -39.287556 121.30939 -0.48505083 108.80882
8672185000 -0.38224813 -41.169796 -39.208214 120.76389 -39.183277 120.66894 -0.52086377 107.973
8681180000 -0.37766892 -41.888905 -39.12188 120.0472 -39.083172 119.91288 -0.56668395 106.86309
8690175000 -0.3724255 -42.600891 -39.072842 119.18568 -39.042637 119.24169 -0.58952475 105.69576
8699170000 -0.36935464 -43.303135 -38.967621 118.62024 -38.958321 118.44166 -0.58174133 104.72641
8708165000 -0.3681488 -44.005726 -38.902828 117.95444 -38.880562 117.72984 -0.54625094 104.07398
8717160000 -0.36716756 -44.712456 -38.794197 117.29712 -38.817459 117.27963 -0.51283062 103.63548
8726155000 -0.36421975 -45.429474 -38.734974 116.95233 -38.679321 116.57394 -0.50105166 103.1627
8735150000 -0.36213571 -46.150162 -38.610619 116.00291 -38.616402 115.84214 -0.52052701 102.44743
8744145000 -0.35876873 -46.867352 -38.538239 115.19321 -38.549198 115.29041 -0.55659992 101.43239
8753140000 -0.3533296 -47.587288 -38.460278 114.53853 -38.440552 114.29343 -0.59007239 100.28607
8762135000 -0.35000479 -48.280281 -38.403496 113.87914 -38.390556 113.58219 -0.59449416 99.238091
8771130000 -0.34957215 -48.984333 -38.34568 113.28487 -38.348877 112.88949 -0.57179117 98.484589
8780125000 -0.34762356 -49.698494 -38.256382 112.52866 -38.245651 112.394 -0.54135513 97.970474
8789120000 -0.34436616 -50.414997 -38.141014 112.04488 -38.152168 111.8804 -0.52281958 97.514854
8798115000 -0.34174523 -51.13517 -38.063061 111.3752 -38.066307 111.29058 -0.52724177 96.895088
8807110000 -0.33695784 -51.855865 -37.949329 110.57729 -37.968529 110.69444 -0.55317527 95.999451
8816105000 -0.3318108 -52.552391 -37.875309 109.70701 -37.915211 109.78226 -0.58564925 94.91288
8825100000 -0.32888216 -53.251369 -37.820614 108.96692 -37.833134 108.94285 -0.60055232 93.826767
8834095000 -0.32822633 -53.940086 -37.765057 108.28553 -37.783543 108.21974 -0.5928877 92.941963
8843090000 -0.32599595 -54.648964 -37.714367 107.65769 -37.732761 107.39898 -0.57000715 92.318825
8852085000 -0.32335508 -55.356178 -37.624874 107.06725 -37.620468 106.83218 -0.54878944 91.81794
8861080000 -0.32045081 -56.068195 -37.527233 106.32965 -37.541805 106.41063 -0.54300398 91.257118
8870075000 -0.31697536 -56.771301 -37.429905 105.5919 -37.456703 105.4166 -0.55599791 90.49015
8879070000 -0.31258681 -57.474258 -37.376766 104.86201 -37.382698 104.77589 -0.58361757 89.495049
8888065000 -0.3096458 -58.15863 -37.304737 104.08673 -37.339703 104.08413 -0.60368407 88.433372
8897060000 -0.30943984 -58.86425 -37.259251 103.37711 -37.272465 103.28287 -0.60615104 87.467697
8906055000 -0.3079907 -59.568996 -37.187794 102.61024 -37.240654 102.47721 -0.59354234 86.720406
8915050000 -0.30479342 -60.28952 -37.138741 102.11713 -37.168526 102.0113 -0.57379043 86.14592
8924045000 -0.30249208 -60.999561 -37.032368 101.51575 -37.052032 101.46634 -0.56227601 85.582924
8933040000 -0.29818276 -61.699318 -36.948277 100.87861 -36.952782 100.5001 -0.56670403 84.892242
8942035000 -0.29354063 -62.385185 -36.857288 100.05293 -36.918617 99.958923 -0.58489567 84.006531
8951030000 -0.29082561 -63.065079 -36.810413 99.153374 -36.825615 99.099258 -0.60466671 82.972435
8960025000 -0.28998646 -63.754353 -36.766121 98.513695 -36.789936 98.375015 -0.61486256 81.9674
8969020000 -0.28815016 -64.472946 -36.696617 97.66291 -36.71246 97.670166 -0.60798067 81.13475
8978015000 -0.28601822 -65.170998 -36.66946 97.067215 -36.673286 97.207748 -0.59418607 80.479347
8987010000 -0.28286803 -65.878868 -36.573166 96.447197 -36.612362 96.567093 -0.58049464 79.91597
8996005000 -0.27800629 -66.572205 -36.49712 95.976151 -36.52718 95.884995 -0.57972336 79.308655
9005000000 -0.27406085 -67.259399 -36.402512 95.396652 -36.445011 95.284973 -0.5935269 78.524429
9013995000 -0.27349979 -67.932594 -36.328316 94.447845 -36.373405 94.42543 -0.61080909 77.557434
9022990000 -0.27335036 -68.624298 -36.262074 93.533501 -36.309849 93.590004 -0.62465906 76.526619
9031985000 -0.27196175 -69.325905 -36.250706 92.721161 -36.266483 92.894135 -0.62386584 75.593826
9040980000 -0.26784831 -70.02916 -36.226593 91.969002 -36.227169 92.200462 -0.61306161 74.830269
9049975000 -0.26529405 -70.721664 -36.170044 91.557617 -36.181831 91.664505 -0.59889758 74.236145
9058970000 -0.26023889 -71.406479 -36.085491 91.016754 -36.109066 91.016571 -0.59403205 73.651146
9067965000 -0.25855443 -72.084335 -36.011635 90.29483 -36.02417 90.32325 -0.60291672 72.960175
9076960000 -0.25763825 -72.755836 -35.912678 89.554085 -35.948483 89.592537 -0.61884481 72.068947
9085955000 -0.25791404 -73.436363 -35.84819 88.602905 -35.908695 88.737625 -0.63324308 71.047997
9094950000 -0.25537848 -74.121162 -35.804394 87.902435 -35.843533 88.05748 -0.63691252 70.029442
9103945000 -0.25259832 -74.817924 -35.753933 87.244461 -35.78574 87.339073 -0.62702733 69.176155
9112940000 -0.24802218 -75.502151 -35.724403 86.496498 -35.72234 86.706184 -0.6131525 68.519463
9121935000 -0.24583891 -76.181541 -35.630432 85.785179 -35.659473 86.024536 -0.60316384 67.956558
9130930000 -0.2437323 -76.862831 -35.556767 85.268158 -35.595882 85.352493 -0.60630614 67.37513
9139925000 -0.24474905 -77.539566 -35.510616 84.456352 -35.510708 84.638817 -0.62538636 66.608604
9148920000 -0.24408992 -78.235886 -35.458801 83.701805 -35.449383 83.972023 -0.64346457 65.641846
9157915000 -0.24134842 -78.943138 -35.39402 82.911255 -35.395607 83.069489 -0.6527558 64.573936
9166910000 -0.23828377 -79.629211 -35.347687 82.231689 -35.34502 82.335686 -0.64411789 63.577492
9175905000 -0.23148516 -80.312988 -35.297421 81.279198 -35.299633 81.524544 -0.62714577 62.79493
9184900000 -0.22760983 -80.979492 -35.255653 80.826523 -35.238323 80.869026 -0.61413491 62.206852
9193895000 -0.22728413 -81.629913 -35.182426 80.186104 -35.194916 80.269547 -0.61400461 61.660866
9202890000 -0.22782752 -82.293518 -35.114452 79.32061 -35.130623 79.473923 -0.62969911 61.009094
9211885000 -0.22725168 -82.964561 -35.045147 78.639572 -35.060764 78.786789 -0.65043479 60.138306
9220880000 -0.22604921 -83.644882 -35.010368 77.876503 -35.016289 78.137184 -0.66285932 59.103382
9229875000 -0.22351013 -84.329391 -34.945744 76.983665 -34.942745 77.313324 -0.65597117 58.042503
9238870000 -0.22004165 -85.014374 -34.88554 76.223145 -34.896221 76.458588 -0.63919091 57.167511
9247865000 -0.21667227 -85.669037 -34.870457 75.666031 -34.873844 75.804497 -0.62264287 56.497517
9256860000 -0.21752185 -86.334503 -34.798912 74.962021 -34.80566 75.229874 -0.62050486 55.948017
9265855000 -0.22018407 -87.00798 -34.763344 74.250916 -34.735607 74.538078 -0.63716257 55.368938
9274850000 -0.21843122 -87.69574 -34.694202 73.644783 -34.681526 73.833237 -0.66199219 54.587307
9283845000 -0.21730168 -88.390778 -34.654205 72.611313 -34.621933 73.202957 -0.67544979 53.565456
9292840000 -0.21420772 -89.082718 -34.597012 72.136848 -34.582779 72.313271 -0.66928333 52.471527
9301835000 -0.20883085 -89.771011 -34.542213 71.333694 -34.513214 71.611053 -0.64928573 51.511089
9310830000 -0.20349588 -90.41539 -34.494118 70.596054 -34.476784 70.873451 -0.62862855 50.774784
9319825000 -0.20499006 -91.062698 -34.460682 70.023666 -34.429829 70.143539 -0.62298763 50.235981
9328820000 -0.20392559 -91.728714 -34.399525 69.408615 -34.381569 69.435555 -0.63738316 49.720188
9337815000 -0.202198 -92.395233 -34.334831 68.723427 -34.333714 68.767326 -0.66801393 49.041523
9346810000 -0.20206186 -93.052216 -34.288754 67.965538 -34.265003 68.124626 -0.68797499 48.085995
9355805000 -0.19833355 -93.728096 -34.238708 67.116806 -34.211964 67.331268 -0.68685538 46.987274
9364800000 -0.19463278 -94.39386 -34.161755 66.484909 -34.1768 66.536018 -0.66527867 45.923275
9373795000 -0.19251192 -95.036148 -34.15086 65.564163 -34.120907 65.764732 -0.64030105 45.052753
9382790000 -0.1933243 -95.694962 -34.112282 64.929207 -34.077324 65.021263 -0.62634909 44.416084
9391785000 -0.19414443 -96.367538 -34.053783 64.249229 -34.057335 64.307549 -0.6363107 43.935509
9400780000 -0.19445303 -97.052887 -34.015831 63.561886 -33.988914 63.660088 -0.66717625 43.36618
9409775000 -0.1940413 -97.735611 -33.974308 62.848759 -33.949352 63.038166 -0.69266158 42.548161
9418770000 -0.19006401 -98.40554 -33.912876 62.21928 -33.882084 62.258404 -0.69725597 41.499657
9427765000 -0.18456323 -99.06308 -33.855686 61.48225 -33.822807 61.603935 -0.68172288 40.401562
9436760000 -0.18110979 -99.693985 -33.808372 60.681622 -33.780899 60.706238 -0.65280181 39.397991
9445755000 -0.18259251 -100.33382 -33.784607 59.791225 -33.741371 59.933727 -0.63137674 38.649818
9454750000 -0.18358396 -101.0182 -33.747509 59.155605 -33.744087 59.303364 -0.63692212 38.122684
9463745000 -0.18180533 -101.6931 -33.702534 58.59988 -33.683426 58.602772 -0.66546333 37.597656
9472740000 -0.18019038 -102.34556 -33.659443 57.928467 -33.626198 57.943207 -0.69242781 36.889561
9481735000 -0.17581333 -103.00501 -33.58012 57.161243 -33.558853 57.294956 -0.70643133 35.951191
9490730000 -0.17087628 -103.64746 -33.535149 56.518047 -33.516239 56.383766 -0.693865 34.848785
9499725000 -0.17042102 -104.25031 -33.475616 55.620941 -33.465534 55.73798 -0.66336322 33.78437
9508720000 -0.17366336 -104.88732 -33.457882 54.812214 -33.426441 54.836987 -0.63641018 32.945324
9517715000 -0.17628075 -105.57214 -33.440323 53.992458 -33.400013 53.86903 -0.63246536 32.342724
9526710000 -0.17721011 -106.25529 -33.422539 53.344933 -33.381821 53.344196 -0.65372223 31.831018
9535705000 -0.17362133 -106.9327 -33.361778 52.813454 -33.341938 52.680973 -0.68801868 31.2348
9544700000 -0.17019218 -107.58723 -33.308201 52.197582 -33.290386 52.074833 -0.7079277 30.422649
9553695000 -0.16526368 -108.2047 -33.238125 51.462746 -33.228313 51.450222 -0.70800084 29.38343
9562690000 -0.16338904 -108.80168 -33.184933 50.63649 -33.161587 50.701511 -0.68237799 28.262886
9571685000 -0.16908455 -109.42763 -33.152225 49.854919 -33.137325 49.834507 -0.6489557 27.278599
9580680000 -0.1707422 -110.10511 -33.139915 49.019867 -33.105457 48.944229 -0.63577968 26.55291
9589675000 -0.17052898 -110.79376 -33.104408 48.259991 -33.092442 48.197926 -0.64861304 25.995224
9598670000 -0.16675606 -111.47935 -33.076183 47.739983 -33.052555 47.581013 -0.67891479 25.436741
9607665000 -0.16318101 -112.15979 -33.027142 47.129196 -33.00539 46.879562 -0.70662868 24.721779
9616660000 -0.15628257 -112.78542 -32.95665 46.264454 -32.923508 46.198872 -0.71359128 23.759747
9625655000 -0.15620984 -113.36986 -32.90963 45.530239 -32.888706 45.42033 -0.69419515 22.647314
9634650000 -0.15985033 -113.98273 -32.873432 44.604366 -32.845413 44.564598 -0.65989798 21.569813
9643645000 -0.16236348 -114.62472 -32.868008 43.89452 -32.832073 43.644115 -0.63551176 20.737619
9652640000 -0.16269295 -115.28593 -32.862411 43.015759 -32.83675 43.008087 -0.63519472 20.120884
9661635000 -0.16218747 -115.94781 -32.817097 42.384724 -32.824657 42.342823 -0.65852469 19.619337
9670630000 -0.15854074 -116.61134 -32.785721 41.841537 -32.767139 41.820007 -0.69007552 19.029497
9679625000 -0.15475327 -117.22839 -32.72485 41.189556 -32.7117 41.193016 -0.71097291 18.207474
9688620000 -0.15478681 -117.83001 -32.669724 40.532051 -32.663342 40.405602 -0.70509559 17.136177
9697615000 -0.15826474 -118.44525 -32.629807 39.762123 -32.629341 39.687885 -0.67675614 15.984385
9706610000 -0.16051562 -119.10765 -32.60918 38.900753 -32.590385 38.76149 -0.64602631 14.983405
9715605000 -0.1598984 -119.77498 -32.597588 38.066841 -32.588539 37.98851 -0.63056195 14.241371
9724600000 -0.15736815 -120.45232 -32.566307 37.429451 -32.582283 37.326202 -0.63904846 13.713672
9733595000 -0.15390676 -121.08822 -32.528164 36.890778 -32.554611 36.839024 -0.66486323 13.224477
9742590000 -0.15266894 -121.70982 -32.482368 36.388508 -32.503056 36.176151 -0.69194877 12.543894
9751585000 -0.15322156 -122.30698 -32.409397 35.553596 -32.448242 35.487373 -0.70273191 11.581979
9760580000 -0.15714753 -122.92823 -32.369186 34.707596 -32.397274 34.560181 -0.6883499 10.408806
9769575000 -0.15845804 -123.57174 -32.363873 33.924976 -32.3862 33.747066 -0.6583578 9.2622366
9778570000 -0.15978345 -124.20597 -32.364254 33.08284 -32.379116 33.025143 -0.63304126 8.3583193
9787565000 -0.15812407 -124.86706 -32.357819 32.265385 -32.379574 32.162792 -0.62517083 7.7360382
9796560000 -0.1533712 -125.50709 -32.343037 31.684988 -32.362648 31.530441 -0.63634515 7.2786021
9805555000 -0.15454645 -126.11671 -32.314137 31.012566 -32.331593 30.957439 -0.66203767 6.7375169
9814550000 -0.15791656 -126.73337 -32.273605 30.284807 -32.274345 30.410707 -0.68332255 5.9429455
9823545000 -0.15792327 -127.36918 -32.234932 29.59786 -32.239391 29.579214 -0.68720382 4.867362
9832540000 -0.15884683 -127.99822 -32.225346 28.824755 -32.226154 28.759417 -0.67192441 3.6778619
9841535000 -0.15829964 -128.62553 -32.223957 28.093357 -32.226669 28.136686 -0.64515054 2.6098781
9850530000 -0.15734561 -129.26665 -32.226685 27.374363 -32.212135 27.376308 -0.62521267 1.8411187
9859525000 -0.15706916 -129.89413 -32.218464 26.631838 -32.193195 26.797621 -0.62302589 1.3056355
9868520000 -0.15806715 -130.50813 -32.192165 25.956104 -32.174667 26.142002 -0.63963574 0.82245839
9877515000 -0.16135697 -131.12518 -32.163528 25.453173 -32.135098 25.530807 -0.66326821 0.17195092
9886510000 -0.16135724 -131.77307 -32.122967 24.733694 -32.107021 24.809637 -0.68054706 -0.77143902
9895505000 -0.16066228 -132.39932 -32.098797 24.017035 -32.077358 24.199781 -0.67954981 -1.9459171
9904500000 -0.16129464 -133.01923 -32.088303 23.363605 -32.076904 23.248903 -0.65956408 -3.106703
9913495000 -0.15972383 -133.63933 -32.09026 22.721178 -32.081734 22.679483 -0.6351642 -4.0467429
9922490000 -0.16024594 -134.23779 -32.1049 22.050993 -32.103756 21.903896 -0.62257862 -4.7147856
9931485000 -0.16212702 -134.83786 -32.109303 21.541508 -32.122276 21.46026 -0.62729859 -5.2287836
9940480000 -0.16544303 -135.47369 -32.093014 20.948641 -32.104061 20.896757 -0.64423704 -5.8007059
9949475000 -0.16997279 -136.12521 -32.067616 20.467497 -32.083466 20.457064 -0.66712707 -6.6077437
9958470000 -0.16974829 -136.73863 -32.037125 19.874704 -32.063057 19.894894 -0.67518854 -7.6946864
9967465000 -0.17033082 -137.35461 -32.033676 19.236149 -32.046543 19.252516 -0.66687804 -8.8633165
9976460000 -0.17053705 -137.97783 -32.03698 18.617001 -32.049885 18.61866 -0.64521301 -9.8926125
9985455000 -0.17031386 -138.58298 -32.055595 18.169662 -32.067524 18.022478 -0.62628335 -10.671707
9994450000 -0.17557774 -139.17743 -32.054188 17.697006 -32.082184 17.641455 -0.62069297 -11.248042
10003445000 -0.18178859 -139.81828 -32.051117 17.266932 -32.064396 17.129625 -0.6357227 -11.780684
10012440000 -0.18474419 -140.48563 -32.034855 16.766787 -32.051392 16.72448 -0.65992057 -12.474007
10021435000 -0.18415567 -141.09517 -32.018044 16.370564 -32.056664 16.228077 -0.67650717 -13.438747
10030430000 -0.18422239 -141.7083 -32.018581 15.878865 -32.044537 15.881758 -0.67805201 -14.53721
10039425000 -0.18414839 -142.31064 -32.016533 15.570171 -32.034992 15.493715 -0.66509765 -15.623259
10048420000 -0.18361042 -142.85748 -32.032516 15.259959 -32.041588 15.117176 -0.64552146 -16.531958
10057415000 -0.18968569 -143.40938 -32.022934 14.964751 -32.047165 14.865789 -0.63669705 -17.211437
10066410000 -0.20020734 -144.0192 -32.022503 14.812939 -32.040722 14.805311 -0.64323431 -17.757717
10075405000 -0.20822275 -144.67081 -32.007866 14.680165 -32.022449 14.660296 -0.6627776 -18.401924
10084400000 -0.21056814 -145.30878 -31.970049 14.593986 -31.990196 14.631609 -0.68230259 -19.229275
10093395000 -0.21041326 -145.94466 -31.931898 14.434198 -31.937386 14.420165 -0.69282132 -20.256857
10102390000 -0.20751725 -146.54509 -31.879847 14.361161 -31.896824 14.31332 -0.68819582 -21.340731
10111385000 -0.20815106 -147.10527 -31.820538 14.232549 -31.838345 14.245642 -0.67398638 -22.322411
10120380000 -0.21373919 -147.63165 -31.757639 14.181818 -31.787407 14.306119 -0.66239917 -23.105637
10129375000 -0.22432317 -148.22495 -31.693905 14.300879 -31.720934 14.42982 -0.66197377 -23.721012
10138370000 -0.23187861 -148.81813 -31.603197 14.347318 -31.611795 14.506956 -0.67724502 -24.322376
10147365000 -0.23807594 -149.42233 -31.476065 14.38264 -31.501476 14.385292 -0.69608229 -25.030832
10156360000 -0.23890948 -150.02478 -31.320942 14.124102 -31.358728 14.306474 -0.71046436 -25.911037
10165355000 -0.23778692 -150.61496 -31.169479 13.844978 -31.203548 13.950338 -0.71172518 -26.91309
10174350000 -0.2368314 -151.14774 -31.043566 13.282106 -31.051271 13.460034 -0.70183879 -27.9135
10183345000 -0.24281572 -151.66908 -30.88015 12.827612 -30.900463 12.892922 -0.69089335 -28.780352
10192340000 -0.25247899 -152.23383 -30.747488 12.36188 -30.761734 12.334608 -0.68667805 -29.495708
10201335000 -0.25597045 -152.82971 -30.605843 11.689755 -30.620836 11.716129 -0.69283772 -30.135477
10210330000 -0.25691921 -153.42503 -30.456726 10.783829 -30.469805 10.906792 -0.70430434 -30.810423
10219325000 -0.25526538 -154.01118 -30.309809 9.9257498 -30.328199 9.9732237 -0.71310133 -31.594547
10228320000 -0.24896646 -154.56226 -30.173491 8.8311081 -30.188992 8.9006586 -0.71337223 -32.49572
10237315000 -0.24509688 -155.05989 -30.050329 7.7512541 -30.075405 7.8140345 -0.70320028 -33.453316
10246310000 -0.24787857 -155.57422 -29.965296 6.6339264 -29.981888 6.6784472 -0.6894086 -34.351753
10255305000 -0.25242302 -156.15887 -29.886055 5.4924817 -29.89924 5.6054831 -0.68219507 -35.133961
10264300000 -0.25382105 -156.75101 -29.82794 4.392663 -29.844261 4.5842447 -0.68418276 -35.841118
10273295000 -0.24847963 -157.34814 -29.773317 3.3311746 -29.782246 3.4730165 -0.69447213 -36.541111
10282290000 -0.24122253 -157.93405 -29.719564 2.37395 -29.723499 2.383285 -0.7029379 -37.321453
10291285000 -0.23492616 -158.47641 -29.6735 1.3113351 -29.672058 1.2927563 -0.70367754 -38.2085
10300280000 -0.23357762 -158.98155 -29.632874 0.2913107 -29.634947 0.31636342 -0.6919117 -39.158127
10309275000 -0.23919393 -159.53197 -29.601053 -0.67524236 -29.603737 -0.69484651 -0.67570448 -40.085682
10318270000 -0.24389303 -160.14194 -29.594435 -1.6933286 -29.58456 -1.6028465 -0.66342086 -40.91917
10327265000 -0.2429411 -160.75259 -29.5742 -2.5185201 -29.569782 -2.397892 -0.66456038 -41.666206
10336260000 -0.23629399 -161.37987 -29.562487 -3.3307757 -29.554499 -3.130187 -0.67590982 -42.378403
10345255000 -0.22969252 -161.98441 -29.545238 -4.0932097 -29.538345 -4.0109916 -0.6896823 -43.140572
10354250000 -0.2244461 -162.52669 -29.53013 -4.795454 -29.518002 -4.7392874 -0.69425404 -43.980358
10363245000 -0.22697046 -163.04628 -29.507042 -5.3675609 -29.494829 -5.4068041 -0.68555146 -44.898121
10372240000 -0.23517975 -163.59062 -29.474529 -5.9648223 -29.47941 -5.972178 -0.66834849 -45.811783
10381235000 -0.24097654 -164.20908 -29.461361 -6.6064916 -29.460161 -6.6277585 -0.65498018 -46.660057
10390230000 -0.23779048 -164.82899 -29.427517 -7.3127446 -29.430729 -7.1428919 -0.65572041 -47.423977
10399225000 -0.23092192 -165.42993 -29.401194 -7.755609 -29.402626 -7.6768861 -0.67096514 -48.145817
10408220000 -0.22639936 -166.01588 -29.365221 -8.1600714 -29.355719 -8.1238747 -0.69269073 -48.905994
10417215000 -0.22662954 -166.56059 -29.312819 -8.6182528 -29.313618 -8.5879974 -0.70593429 -49.745949
10426210000 -0.22876197 -167.09311 -29.260422 -9.0845051 -29.245173 -8.9853773 -0.70058906 -50.664059
10435205000 -0.23614448 -167.67577 -29.193018 -9.4848137 -29.170723 -9.5134697 -0.68159723 -51.581665
10444200000 -0.2408151 -168.25249 -29.107763 -9.9254446 -29.104656 -9.9638157 -0.66027915 -52.442863
10453195000 -0.23970407 -168.8308 -29.019608 -10.478931 -29.031019 -10.568085 -0.65489411 -53.201744
10462190000 -0.23462506 -169.39993 -28.930183 -11.032656 -28.948898 -11.10266 -0.66922718 -53.912407
10471185000 -0.23235348 -169.96201 -28.841381 -11.623246 -28.853134 -11.693132 -0.69613308 -54.642174
10480180000 -0.23225053 -170.49905 -28.743536 -12.319983 -28.758652 -12.36788 -0.71876925 -55.447906
10489175000 -0.23563257 -171.04208 -28.648317 -13.049908 -28.663471 -13.095584 -0.71932155 -56.331951
10498170000 -0.23929623 -171.60786 -28.543852 -13.894623 -28.564497 -13.882523 -0.69724655 -57.23571
10507165000 -0.24001238 -172.18471 -28.436981 -14.749418 -28.478125 -14.6606 -0.66561508 -58.070732
10516160000 -0.23540138 -172.74515 -28.351517 -15.748478 -28.380505 -15.638787 -0.64673078 -58.8158
10525155000 -0.23248102 -173.29457 -28.274086 -16.675148 -28.290344 -16.513201 -0.65439057 -59.497204
10534150000 -0.22989121 -173.8412 -28.214226 -17.634054 -28.220514 -17.514374 -0.68410552 -60.20549
10543145000 -0.2295416 -174.384 -28.14073 -18.624697 -28.161375 -18.377668 -0.71709937 -61.010155
10552140000 -0.23038661 -174.94836 -28.086287 -19.528004 -28.094946 -19.325306 -0.7275424 -61.916172
10561135000 -0.23281556 -175.54655 -28.01358 -20.502983 -28.021364 -20.370064 -0.70770073 -62.867249
10570130000 -0.22945209 -176.12781 -27.936947 -21.480576 -27.94389 -21.350508 -0.66812021 -63.759583
10579125000 -0.22622974 -176.68135 -27.862911 -22.498226 -27.870779 -22.336611 -0.6327346 -64.531326
10588120000 -0.22391976 -177.23917 -27.806538 -23.575006 -27.821507 -23.420105 -0.6273725 -65.195313
10597115000 -0.22093111 -177.79584 -27.767984 -24.66283 -27.784821 -24.47224 -0.65515149 -65.857605
10606110000 -0.22155298 -178.34209 -27.749544 -25.682552 -27.757084 -25.522528 -0.69686753 -66.621605
10615105000 -0.22485119 -178.90884 -27.716286 -26.556282 -27.727701 -26.421379 -0.724648 -67.508675
10624100000 -0.22579753 -179.50652 -27.688457 -27.513031 -27.688204 -27.330259 -0.71721905 -68.496178
10633095000 -0.22201064 179.91432 -27.637785 -28.450665 -27.638124 -28.304062 -0.6761905 -69.448944
10642090000 -0.21969011 179.35974 -27.58572 -29.431732 -27.597986 -29.314369 -0.62792641 -70.273209
10651085000 -0.21732128 178.82011 -27.561197 -30.455448 -27.573866 -30.318657 -0.60374653 -70.944633
10660080000 -0.21383081 178.28702 -27.550489 -31.3934 -27.559525 -31.19021 -0.61867887 -71.548912
10669075000 -0.2154254 177.77895 -27.549053 -32.237343 -27.545923 -32.090572 -0.66512483 -72.203766
10678070000 -0.22084478 177.21584 -27.528469 -32.929562 -27.523657 -32.866192 -0.71012324 -73.01989
10687065000 -0.22514017 176.6006 -27.49896 -33.769741 -27.509365 -33.712074 -0.72325164 -73.991844
10696060000 -0.22344853 175.98918 -27.457838 -34.587868 -27.473305 -34.533897 -0.69648463 -75.017006
10705055000 -0.22141242 175.39648 -27.413954 -35.506611 -27.424711 -35.394451 -0.64427191 -75.969704
10714050000 -0.2205008 174.82771 -27.388092 -36.439312 -27.40164 -36.231159 -0.60276711 -76.736504
10723045000 -0.21527524 174.30153 -27.373924 -37.358765 -27.36846 -37.164536 -0.59779328 -77.357048
10732040000 -0.21629815 173.79243 -27.371372 -38.224384 -27.359776 -38.004677 -0.63393646 -77.944252
10741035000 -0.22111769 173.24573 -27.371603 -38.887047 -27.349216 -38.767776 -0.68469977 -78.653023
10750030000 -0.22436404 172.66032 -27.353203 -39.60191 -27.329266 -39.416626 -0.71875948 -79.530037
10759025000 -0.22666991 172.07594 -27.309412 -40.317833 -27.294849 -40.175461 -0.71106225 -80.560432
10768020000 -0.2249755 171.49065 -27.254559 -41.133907 -27.253567 -41.017776 -0.66498631 -81.577644
10777015000 -0.22146308 170.91208 -27.228294 -42.015697 -27.208458 -41.917519 -0.61269736 -82.458626
10786010000 -0.21853575 170.3765 -27.211123 -42.939896 -27.196301 -42.808441 -0.58689028 -83.121872
10795005000 -0.21822843 169.86192 -27.18812 -43.708614 -27.177778 -43.55727 -0.60626984 -83.67218
10804000000 -0.22141051 169.31783 -27.173416 -44.433617 -27.160315 -44.305855 -0.65838432 -84.259659
10812995000 -0.22607076 168.74641 -27.157776 -45.151478 -27.136242 -44.956032 -0.70746857 -85.013268
10821990000 -0.22663309 168.17091 -27.11027 -45.835861 -27.109278 -45.741093 -0.72570485 -85.986549
10830985000 -0.22631647 167.58707 -27.075201 -46.551319 -27.065683 -46.470371 -0.69797701 -87.071167
10839980000 -0.22485663 167.00957 -27.029758 -47.410469 -27.021408 -47.340183 -0.64217389 -88.077156
10848975000 -0.22284983 166.45987 -26.998144 -48.344738 -26.999798 -48.278744 -0.59823948 -88.866028
10857970000 -0.22464973 165.93896 -26.982847 -49.198997 -26.975927 -49.035614 -0.59052938 -89.446945
10866965000 -0.2274448 165.37367 -26.980536 -49.931961 -26.960157 -49.826363 -0.62407863 -89.957863
10875960000 -0.23001458 164.81033 -26.974634 -50.594257 -26.943968 -50.3979 -0.67857432 -90.54055
10884955000 -0.2306473 164.25171 -26.94227 -51.148907 -26.918406 -51.129333 -0.718557 -91.380951
10893950000 -0.23075131 163.68088 -26.902081 -51.854679 -26.876638 -51.872612 -0.71764594 -92.43499
10902945000 -0.23069152 163.11182 -26.856394 -52.612152 -26.836445 -52.542404 -0.67551816 -93.527756
10911940000 -0.22830358 162.57977 -26.810856 -53.529648 -26.80257 -53.387539 -0.62144381 -94.465736
10920935000 -0.23167327 162.05498 -26.784267 -54.411007 -26.775442 -54.255154 -0.58966619 -95.15255
10929930000 -0.23559459 161.48953 -26.77186 -55.199547 -26.760582 -55.058426 -0.59925592 -95.637161
10938925000 -0.2358329 160.94247 -26.754189 -55.921524 -26.74058 -55.658363 -0.64585966 -96.078072
10947920000 -0.23595889 160.38026 -26.738457 -56.532181 -26.700924 -56.305496 -0.69904202 -96.745964
10956915000 -0.2374282 159.81367 -26.698532 -57.153599 -26.673132 -57.060974 -0.72294587 -97.703156
10965910000 -0.23525709 159.26605 -26.665615 -57.908627 -26.627012 -57.831985 -0.70278883 -98.83654
10974905000 -0.23470184 158.75481 -26.627241 -58.707039 -26.59865 -58.656837 -0.65249705 -99.93821
10983900000 -0.23758924 158.21996 -26.589228 -59.469097 -26.564562 -59.506958 -0.60410768 -100.79815
10992895000 -0.24211827 157.65979 -26.571939 -60.313187 -26.548519 -60.33255 -0.58884794 -101.34759
11001890000 -0.24345687 157.10637 -26.556103 -60.998215 -26.534035 -60.982265 -0.61768979 -101.72357
11010885000 -0.24506922 156.54701 -26.520433 -61.569363 -26.507929 -61.610874 -0.67337239 -102.22019
11019880000 -0.24609149 155.98631 -26.48395 -62.250729 -26.467886 -62.303833 -0.71837467 -103.01002
11028875000 -0.24366495 155.44255 -26.440338 -62.996597 -26.428335 -63.056961 -0.7244302 -104.08685
11037870000 -0.24322307 154.92937 -26.388721 -63.864735 -26.38278 -63.830528 -0.68566847 -105.2644
11046865000 -0.24884585 154.38142 -26.364347 -64.703171 -26.353661 -64.69001 -0.62867045 -106.26086
11055860000 -0.25236431 153.80714 -26.331585 -65.545456 -26.323427 -65.562828 -0.58715016 -106.91422
11064855000 -0.253326 153.2394 -26.318439 -66.344925 -26.30611 -66.356689 -0.59575146 -107.2966
11073850000 -0.25378153 152.6756 -26.302576 -67.097717 -26.28166 -67.081589 -0.64406621 -107.68015
11082845000 -0.25334904 152.10979 -26.277451 -67.742073 -26.255497 -67.706825 -0.70272976 -108.30838
11091840000 -0.25006396 151.57564 -26.247614 -68.403038 -26.21903 -68.399902 -0.73370612 -109.26243
11100835000 -0.25255141 151.0452 -26.219692 -69.165741 -26.184662 -69.218147 -0.7132923 -110.47727
11109830000 -0.25747237 150.50449 -26.175327 -69.944794 -26.147882 -70.045662 -0.65506476 -111.61411
11118825000 -0.25951502 149.9418 -26.147852 -70.880119 -26.135927 -70.916069 -0.59798843 -112.43741
11127820000 -0.2603164 149.38991 -26.139799 -71.659637 -26.117044 -71.768196 -0.58094025 -112.90363
11136815000 -0.26008826 148.83109 -26.121067 -72.357498 -26.112345 -72.422966 -0.61252803 -113.22508
11145810000 -0.25900996 148.26981 -26.096039 -72.944977 -26.093546 -73.016205 -0.67268807 -113.66525
11154805000 -0.25885719 147.7522 -26.078384 -73.491837 -26.063646 -73.560509 -0.72362161 -114.45054
11163800000 -0.26284191 147.2207 -26.037115 -74.145546 -26.02298 -74.201103 -0.72726727 -115.57336
11172795000 -0.26975071 146.65692 -25.992975 -74.860428 -25.986961 -74.988998 -0.68227202 -116.79053
11181790000 -0.27027518 146.09496 -25.969551 -75.718849 -25.955223 -75.82106 -0.62136555 -117.76066
11190785000 -0.27110088 145.55171 -25.941742 -76.545021 -25.943113 -76.646851 -0.58354795 -118.37185
11199780000 -0.27358276 144.99605 -25.939709 -77.273598 -25.939783 -77.405731 -0.59347349 -118.72915
11208775000 -0.27146158 144.44618 -25.91662 -77.801804 -25.915359 -77.90477 -0.64414668 -119.04803
11217770000 -0.27135411 143.92084 -25.883749 -78.400856 -25.88472 -78.509987 -0.70358104 -119.64458
11226765000 -0.27733129 143.37601 -25.844103 -78.984734 -25.840557 -79.074959 -0.73432195 -120.64528
11235760000 -0.28102675 142.78944 -25.805376 -79.683136 -25.791204 -79.771553 -0.7119655 -121.88477
11244755000 -0.28203154 142.22113 -25.765961 -80.449677 -25.756441 -80.567329 -0.65168345 -123.02148
11253750000 -0.28154153 141.68484 -25.737974 -81.325272 -25.725672 -81.504417 -0.59489816 -123.82675
11262745000 -0.28343695 141.14549 -25.731079 -82.093964 -25.72448 -82.261765 -0.57781243 -124.27778
11271740000 -0.28425795 140.62041 -25.726078 -82.687286 -25.710192 -82.857445 -0.61049598 -124.53452
11280735000 -0.28615096 140.09805 -25.696608 -83.265999 -25.682165 -83.425415 -0.67169994 -124.94636
11289730000 -0.29292941 139.54144 -25.655275 -83.784424 -25.654161 -83.972412 -0.72149289 -125.74812
11298725000 -0.29683578 138.94406 -25.612001 -84.416634 -25.610701 -84.611755 -0.72374547 -126.89112
11307720000 -0.29530135 138.36894 -25.569393 -85.204025 -25.568794 -85.267624 -0.67997789 -128.09816
11316715000 -0.2943317 137.81775 -25.542902 -85.988655 -25.537628 -86.093536 -0.61735857 -129.10574
11325710000 -0.29381454 137.28752 -25.529179 -86.812973 -25.523872 -86.8573 -0.58033603 -129.71008
11334705000 -0.29752403 136.77435 -25.520641 -87.386734 -25.51243 -87.463654 -0.58996594 -129.97758
11343700000 -0.29942006 136.27119 -25.49445 -87.861603 -25.494244 -87.951271 -0.63955891 -130.26578
11352695000 -0.30703127 135.71268 -25.457129 -88.309395 -25.464504 -88.408043 -0.69785053 -130.86259
11361690000 -0.31202829 135.13243 -25.411806 -88.820824 -25.405546 -88.832764 -0.72578198 -131.83562
11370685000 -0.31257346 134.56544 -25.358521 -89.456451 -25.353949 -89.479774 -0.70453358 -133.07249
11379680000 -0.31383047 134.01843 -25.320997 -90.137985 -25.312088 -90.162514 -0.65475595 -134.23991
11388675000 -0.31456012 133.47041 -25.292673 -90.859505 -25.295996 -90.897469 -0.60478157 -135.04816
11397670000 -0.31629068 132.95847 -25.268873 -91.401657 -25.27837 -91.524727 -0.59051222 -135.44803
11406665000 -0.32048258 132.43253 -25.241343 -91.906029 -25.245766 -91.941559 -0.62513196 -135.69324
11415660000 -0.32864064 131.85962 -25.180109 -92.337807 -25.195261 -92.275429 -0.67653108 -136.08894
11424655000 -0.32989335 131.27068 -25.109585 -92.769196 -25.132427 -92.790375 -0.71588922 -136.84236
11433650000 -0.3302556 130.70604 -25.042025 -93.352852 -25.053535 -93.319611 -0.72101432 -137.96207
11442645000 -0.33207905 130.15359 -24.971485 -94.091118 -24.98394 -94.06916 -0.68921751 -139.21736
11451640000 -0.33350495 129.61649 -24.929977 -94.831505 -24.936321 -94.788345 -0.63831621 -140.19092
11460635000 -0.33388901 129.09917 -24.901142 -95.441719 -24.905729 -95.516594 -0.6061787 -140.78023
11469630000 -0.33651531 128.58066 -24.844265 -96.036316 -24.858719 -96.055473 -0.61119795 -141.05003
11478625000 -0.34318715 128.02834 -24.786177 -96.552094 -24.794897 -96.537521 -0.64930081 -141.27705
11487620000 -0.34575069 127.45363 -24.706284 -97.014648 -24.714695 -97.034767 -0.69709551 -141.72977
11496615000 -0.34583759 126.90849 -24.617722 -97.612816 -24.623402 -97.637329 -0.72824061 -142.64867
11505610000 -0.34761795 126.36555 -24.533102 -98.321159 -24.537344 -98.384354 -0.72181445 -143.90154
11514605000 -0.34812558 125.82913 -24.468134 -99.185356 -24.476397 -99.238396 -0.67964911 -145.09448
11523600000 -0.34905231 125.32612 -24.418226 -100.05136 -24.436575 -100.03571 -0.63636047 -145.92828
11532595000 -0.35357082 124.80448 -24.381956 -100.77634 -24.392336 -100.77641 -0.61686385 -146.36728
11541590000 -0.35759592 124.23972 -24.333445 -101.3904 -24.33086 -101.37806 -0.63102144 -146.53539
11550585000 -0.36053306 123.66476 -24.245808 -101.95547 -24.246796 -101.95372 -0.66875035 -146.79492
11559580000 -0.3626301 123.08654 -24.145357 -102.62718 -24.154922 -102.63588 -0.71136594 -147.47841
11568575000 -0.36606964 122.54745 -24.058403 -103.43277 -24.071573 -103.35849 -0.72977084 -148.57622
11577570000 -0.36483744 121.98425 -24.009556 -104.36752 -24.005716 -104.21269 -0.70559561 -149.8472
11586565000 -0.36320591 121.45502 -23.959959 -105.21693 -23.961363 -105.16333 -0.66054106 -150.92764
11595560000 -0.36740136 120.90812 -23.931 -106.08725 -23.929821 -106.05168 -0.62333423 -151.58043
11604555000 -0.37074828 120.34067 -23.884314 -106.79896 -23.888309 -106.72244 -0.61098939 -151.81177
11613550000 -0.37319383 119.77465 -23.822695 -107.41143 -23.833088 -107.33176 -0.63817555 -151.91684
11622545000 -0.3772355 119.19444 -23.753965 -108.05816 -23.751261 -108.00475 -0.68561667 -152.35748
11631540000 -0.37976977 118.60963 -23.665161 -108.8152 -23.665335 -108.7495 -0.72070718 -153.2807
11640535000 -0.37992176 118.02869 -23.592936 -109.63705 -23.599331 -109.53813 -0.7186147 -154.53583
11649530000 -0.37992996 117.48607 -23.540598 -110.56026 -23.546474 -110.50291 -0.6841073 -155.80014
11658525000 -0.38329133 116.93318 -23.513611 -111.41298 -23.511358 -111.34933 -0.63760322 -156.68933
11667520000 -0.38677499 116.35256 -23.481989 -112.1392 -23.484266 -112.12392 -0.60318643 -157.08463
11676515000 -0.38789827 115.78745 -23.434408 -112.83862 -23.438869 -112.7315 -0.61483359 -157.16414
11685510000 -0.39073896 115.21982 -23.359446 -113.42029 -23.361353 -113.38917 -0.65629184 -157.42427
11694505000 -0.39380231 114.62951 -23.279829 -114.10701 -23.279343 -114.05409 -0.70457286 -158.07506
11703500000 -0.39671299 114.05722 -23.20298 -114.87595 -23.197716 -114.82756 -0.72699457 -159.21184
11712495000 -0.39967355 113.50056 -23.135508 -115.75459 -23.143169 -115.70039 -0.71091557 -160.54483
11721490000 -0.40466899 112.91675 -23.083483 -116.5695 -23.083603 -116.54348 -0.66247457 -161.64641
11730485000 -0.4081434 112.32069 -23.059679 -117.36002 -23.057192 -117.33052 -0.62291354 -162.21967
11739480000 -0.41024509 111.73837 -23.016806 -118.04857 -23.010242 -117.97395 -0.6170879 -162.3746
11748475000 -0.41331372 111.15149 -22.951427 -118.66586 -22.941582 -118.62119 -0.64638138 -162.49951
11757470000 -0.41847193 110.56136 -22.860924 -119.27477 -22.860901 -119.23164 -0.69747299 -162.93336
11766465000 -0.42104864 109.97756 -22.752256 -119.99134 -22.758415 -119.98166 -0.73536766 -163.85434
11775460000 -0.42512968 109.39502 -22.672237 -120.84269 -22.676519 -120.85947 -0.73664647 -165.17775
11784455000 -0.431034 108.79731 -22.617695 -121.74021 -22.608976 -121.70577 -0.69986886 -166.42818
11793450000 -0.43326294 108.19122 -22.568602 -122.58401 -22.565714 -122.54525 -0.65417391 -167.22336
11802445000 -0.43636444 107.59173 -22.528875 -123.33711 -22.528328 -123.30186 -0.63471323 -167.52919
11811440000 -0.44004709 106.99255 -22.469894 -124.0386 -22.466862 -124.05364 -0.64950192 -167.62158
11820435000 -0.444653 106.38763 -22.378933 -124.73026 -22.381624 -124.69606 -0.69223076 -167.82408
11829430000 -0.45007542 105.79496 -22.278212 -125.46255 -22.272699 -125.46307 -0.7414946 -168.49962
11838425000 -0.45514241 105.18306 -22.172937 -126.34137 -22.172958 -126.32851 -0.76440799 -169.66866
11847420000 -0.4611237 104.5526 -22.095646 -127.26292 -22.094774 -127.23283 -0.74737066 -170.98927
11856415000 -0.46409485 103.93944 -22.037521 -128.23521 -22.03894 -128.18208 -0.7074585 -172.02844
11865410000 -0.46608719 103.34093 -21.995884 -129.1044 -22.003231 -129.05008 -0.67307711 -172.54404
11874405000 -0.47124273 102.75703 -21.947861 -129.91251 -21.95541 -129.8114 -0.66919607 -172.68092
11883400000 -0.47796515 102.1695 -21.878078 -130.60219 -21.884789 -130.586 -0.6981746 -172.74069
11892395000 -0.48651424 101.56107 -21.7903 -131.41124 -21.791237 -131.31056 -0.75115138 -173.16579
11901390000 -0.49458322 100.91654 -21.685919 -132.27699 -21.687958 -132.1913 -0.79270321 -174.09535
11910385000 -0.5008806 100.26392 -21.598787 -133.22726 -21.594999 -133.15532 -0.79425168 -175.37286
11919380000 -0.50365227 99.612991 -21.532988 -134.22449 -21.525904 -134.18188 -0.76263684 -176.57242
11928375000 -0.50727433 98.981331 -21.497782 -135.2097 -21.496664 -135.08504 -0.72156507 -177.34833
11937370000 -0.51196206 98.372627 -21.466959 -136.00349 -21.461754 -135.93404 -0.69846976 -177.62491
11946365000 -0.5198378 97.758728 -21.413538 -136.72099 -21.412863 -136.68655 -0.71422869 -177.6163
11955360000 -0.52862036 97.134903 -21.338453 -137.42444 -21.344131 -137.41408 -0.76236069 -177.80257
11964355000 -0.5385921 96.467331 -21.247915 -138.24731 -21.251554 -138.20549 -0.81125873 -178.45624
11973350000 -0.54585379 95.774078 -21.159534 -139.12714 -21.155905 -139.08632 -0.83466208 -179.58473
11982345000 -0.55029535 95.089539 -21.085957 -140.09573 -21.086004 -140.05971 -0.81886226 179.16174
11991340000 -0.55212158 94.431938 -21.039738 -141.0006 -21.043171 -140.95052 -0.7762273 178.14656
12000335000 -0.55735266 93.788849 -21.010687 -141.82718 -21.017803 -141.75705 -0.73821896 177.69301
12009330000 -0.56309134 93.153954 -20.977798 -142.51524 -20.983446 -142.44395 -0.73037052 177.65707
12018325000 -0.5742082 92.499786 -20.92206 -143.09659 -20.928843 -143.04054 -0.76259828 177.64067
12027320000 -0.58551919 91.801003 -20.833563 -143.74875 -20.8391 -143.64037 -0.80773079 177.23177
12036315000 -0.59271801 91.068474 -20.729225 -144.48308 -20.734533 -144.39728 -0.84320724 176.31657
12045310000 -0.5980835 90.337631 -20.635662 -145.34532 -20.636536 -145.21408 -0.8471781 175.06189
12054305000 -0.60215628 89.624969 -20.569645 -146.12746 -20.5683 -145.97748 -0.81602097 173.85951
12063300000 -0.60912126 88.932686 -20.513325 -146.76381 -20.506544 -146.651 -0.76216358 173.13211
12072295000 -0.61830127 88.24057 -20.456968 -147.33005 -20.446672 -147.20261 -0.73001522 172.93941
12081290000 -0.63075143 87.512917 -20.37875 -147.84875 -20.369741 -147.72923 -0.73712832 172.93787
12090285000 -0.6435982 86.754684 -20.266207 -148.35365 -20.254078 -148.26836 -0.76952767 172.79218
12099280000 -0.65467954 85.958565 -20.128405 -149.01991 -20.122452 -148.95578 -0.81113112 172.20313
12108275000 -0.66221619 85.154663 -19.986399 -149.79889 -19.982597 -149.74492 -0.83929056 171.10471
12117270000 -0.6698088 84.371506 -19.863733 -150.64148 -19.861519 -150.62125 -0.8277114 169.78499
12126265000 -0.67888969 83.608734 -19.767599 -151.4312 -19.767052 -151.41188 -0.78488761 168.76926
12135260000 -0.69134134 82.83168 -19.681705 -152.07826 -19.680191 -152.04245 -0.74104846 168.25938
12144255000 -0.70681417 82.022881 -19.579376 -152.67767 -19.578468 -152.6768 -0.72606897 168.12361
12153250000 -0.72452193 81.179207 -19.448563 -153.30386 -19.458157 -153.27867 -0.73975056 168.06866
12162245000 -0.74038905 80.312851 -19.291162 -154.05594 -19.29936 -154.00534 -0.78139812 167.7186
12171240000 -0.7565195 79.432068 -19.121096 -154.9841 -19.129278 -154.91739 -0.82486123 166.79637
12180235000 -0.77012199 78.561722 -18.966602 -155.93274 -18.970572 -155.84146 -0.8381815 165.49921
12189230000 -0.78457063 77.699257 -18.827688 -156.90797 -18.830833 -156.81039 -0.81248295 164.25912
12198225000 -0.80898899 76.819397 -18.710608 -157.79776 -18.71361 -157.70186 -0.77147353 163.45992
12207220000 -0.83127534 75.902718 -18.5924 -158.53603 -18.595661 -158.47006 -0.73706114 163.16858
12216215000 -0.85770345 74.920418 -18.460554 -159.27873 -18.454309 -159.15697 -0.73216653 163.20409
12225210000 -0.88408583 73.911446 -18.287575 -160.10629 -18.28479 -160.0032 -0.76578927 163.11118
12234205000 -0.90976024 72.8713 -18.09815 -161.06866 -18.098301 -160.95976 -0.82101423 162.51001
12243200000 -0.93343371 71.850853 -17.913427 -162.18109 -17.908554 -162.10832 -0.85931754 161.36662
12252195000 -0.96067685 70.827301 -17.744007 -163.31085 -17.736338 -163.22871 -0.86304832 160.02728
12261190000 -0.99124265 69.776985 -17.584742 -164.39117 -17.583138 -164.30339 -0.83531779 158.90042
12270185000 -1.0274519 68.700783 -17.443144 -165.36975 -17.438215 -165.26497 -0.79273832 158.29266
12279180000 -1.0679023 67.552414 -17.283976 -166.31316 -17.279522 -166.21397 -0.76514918 158.23024
12288175000 -1.1099033 66.359406 -17.107548 -167.26656 -17.102945 -167.18356 -0.78012896 158.29282
12297170000 -1.1541395 65.121765 -16.906195 -168.36549 -16.900265 -168.28778 -0.82876742 157.9953
12306165000 -1.1988027 63.888264 -16.692013 -169.61455 -16.686783 -169.52557 -0.88407218 157.15515
12315160000 -1.2504126 62.629852 -16.487295 -170.95944 -16.478672 -170.89143 -0.91954595 155.88347
12324155000 -1.3068594 61.315639 -16.297195 -172.26732 -16.292423 -172.22643 -0.91241378 154.59366
12333150000 -1.3674625 59.964691 -16.120996 -173.5173 -16.121153 -173.47722 -0.8722865 153.72231
12342145000 -1.4365327 58.526539 -15.940417 -174.70619 -15.940873 -174.65015 -0.83353287 153.46173
12351140000 -1.5133433 56.998962 -15.741637 -175.85085 -15.740026 -175.82353 -0.82641929 153.53433
12360135000 -1.594409 55.405952 -15.514355 -177.12195 -15.514141 -177.09895 -0.86216015 153.49614
12369130000 -1.6813898 53.768379 -15.267999 -178.59972 -15.269417 -178.55273 -0.92319977 152.97443
12378125000 -1.7798822 52.057739 -15.016353 179.75281 -15.019424 179.81265 -0.98249501 151.90057
12387120000 -1.8859568 50.267929 -14.781124 178.01065 -14.785446 178.09766 -1.0044916 150.51601
12396115000 -2.0015879 48.413883 -14.563437 176.31877 -14.564909 176.41309 -0.98197055 149.36702
12405110000 -2.1353664 46.459225 -14.349702 174.72934 -14.350284 174.81131 -0.93906868 148.81729
12414105000 -2.2839406 44.35215 -14.119527 173.14888 -14.120452 173.2368 -0.91764992 148.79562
12423100000 -2.4501808 42.132862 -13.860638 171.41557 -13.865615 171.49942 -0.93663645 148.88452
12432095000 -2.6408157 39.800167 -13.586403 169.47704 -13.588804 169.56888 -0.99852544 148.68802
12441090000 -2.8550227 37.328106 -13.300357 167.31137 -13.300866 167.40814 -1.0766474 147.89806
12450085000 -3.0903277 34.702362 -13.023859 164.94701 -13.024085 165.05301 -1.1355971 146.58202
12459080000 -3.3573921 31.91617 -12.758677 162.50868 -12.760603 162.593 -1.1456176 145.2729
12468075000 -3.6650233 28.906174 -12.514729 160.06285 -12.518408 160.12462 -1.1173438 144.43901
12477070000 -4.0197778 25.653294 -12.277154 157.60602 -12.279831 157.67421 -1.0895439 144.20224
12486065000 -4.4293141 22.181831 -12.028574 155.06714 -12.029851 155.12909 -1.0916716 144.36853
12495060000 -4.9046273 18.393219 -11.759748 152.30693 -11.766594 152.39249 -1.1431094 144.50449
12504055000 -5.4606271 14.288316 -11.4909 149.22729 -11.494828 149.33882 -1.2323402 144.17802
12513050000 -6.0993896 9.8207455 -11.235813 145.86732 -11.236465 145.97089 -1.3190472 143.25259
12522045000 -6.8527493 4.8464379 -11.009223 142.33937 -11.00819 142.44791 -1.3679878 142.10818
12531040000 -7.7343116 -0.76801777 -10.816588 138.71597 -10.815135 138.83041 -1.3740777 141.17802
12540035000 -8.7849073 -7.2121572 -10.655781 135.07852 -10.652415 135.18202 -1.3495131 140.80597
12549030000 -10.046427 -14.778837 -10.517049 131.38165 -10.51195 131.46138 -1.331073 141.00854
12558025000 -11.563798 -24.14607 -10.386058 127.55296 -10.381211 127.63985 -1.3506 141.46161
12567020000 -13.371181 -36.355354 -10.269775 123.52076 -10.265016 123.5812 -1.4157174 141.63783
12576015000 -15.397826 -53.348526 -10.177865 119.24691 -10.173131 119.30816 -1.489701 141.28751
12585010000 -17.183846 -78.020218 -10.12933 114.81763 -10.124736 114.87659 -1.5363687 140.49142
12594005000 -17.644165 -109.49218 -10.13984 110.38979 -10.134987 110.42651 -1.5326529 139.63249
12603000000 -16.307522 -138.32086 -10.206138 106.07014 -10.202638 106.11933 -1.47524 139.08212
12611995000 -14.252299 -158.86258 -10.312577 101.94895 -10.308867 101.98627 -1.3965805 139.12924
12620990000 -12.295465 -173.061 -10.439421 97.94046 -10.438631 97.971207 -1.3388237 139.61121
12629985000 -10.6299 176.4445 -10.582392 93.941429 -10.58205 93.97625 -1.3238467 140.00371
12638980000 -9.2592115 168.19403 -10.745161 89.929565 -10.745369 89.945526 -1.3381923 139.91165
12647975000 -8.1218243 161.28067 -10.932354 85.929459 -10.935339 85.960304 -1.3560903 139.24915
12656970000 -7.1645584 155.26921 -11.161876 82.047226 -11.167859 82.082825 -1.3442875 138.16347
12665965000 -6.3462567 149.96994 -11.435527 78.389374 -11.440894 78.444023 -1.2817317 137.10292
12674960000 -5.6447453 145.17285 -11.737074 75.078018 -11.740963 75.137863 -1.180066 136.56258
12683955000 -5.0436788 140.82143 -12.045403 72.029533 -12.049022 72.119659 -1.0889072 136.58374
12692950000 -4.5309067 136.89555 -12.345635 69.15538 -12.349305 69.22934 -1.0363784 136.77213
12701945000 -4.1003489 133.28294 -12.633917 66.315033 -12.636098 66.383415 -1.0218849 136.74065
12710940000 -3.730572 129.85497 -12.917835 63.483562 -12.9191 63.556572 -1.0388819 136.20718
12719935000 -3.4041662 126.65742 -13.212742 60.67395 -13.213167 60.77449 -1.055959 135.10448
12728930000 -3.1171973 123.70515 -13.529568 58.051495 -13.52929 58.147724 -1.0348029 133.78822
12737925000 -2.8580997 120.9482 -13.870356 55.66785 -13.867472 55.764069 -0.96668977 132.79936
12746920000 -2.6280253 118.37749 -14.215066 53.601425 -14.211986 53.67308 -0.88488996 132.37891
12755915000 -2.4272339 116.00093 -14.541732 51.691719 -14.538336 51.762241 -0.82200289 132.34595
12764910000 -2.261137 113.72482 -14.839958 49.801991 -14.839267 49.884022 -0.79152709 132.39165
12773905000 -2.1098378 111.52223 -15.11758 47.840546 -15.120729 47.929153 -0.80487657 132.11057
12782900000 -1.97209 109.46567 -15.392954 45.826443 -15.395043 45.923592 -0.84403712 131.22499
12791895000 -1.8478153 107.50837 -15.690377 43.873783 -15.685921 43.978786 -0.86267513 129.93372
12800890000 -1.7317171 105.6533 -15.999776 42.141525 -15.994036 42.246048 -0.83332682 128.7394
12809885000 -1.6248413 103.92948 -16.318068 40.610489 -16.312359 40.711151 -0.7715978 127.98851
12818880000 -1.5358839 102.30441 -16.627558 39.30418 -16.623074 39.351315 -0.70279884 127.74715
12827875000 -1.4597621 100.70672 -16.913387 37.970539 -16.909252 38.026814 -0.65596217 127.79646
12836870000 -1.3879889 99.148941 -17.166288 36.577862 -17.163729 36.664028 -0.65554583 127.76608
12845865000 -1.3206875 97.657341 -17.409657 35.065132 -17.406416 35.150249 -0.69809371 127.18027
12854860000 -1.2588903 96.213913 -17.659784 33.513374 -17.659172 33.577633 -0.74279606 126.06755
12863855000 -1.1964675 94.830452 -17.934761 32.100277 -17.928648 32.187347 -0.7550599 124.78668
12872850000 -1.1410228 93.546249 -18.217466 30.914454 -18.213533 31.000795 -0.72410238 123.73882
12881845000 -1.093086 92.323753 -18.496883 29.84733 -18.494419 29.935425 -0.65869761 123.19078
12890840000 -1.0546417 91.109276 -18.758297 28.860767 -18.753988 28.970341 -0.59433001 123.1594
12899835000 -1.016343 89.915573 -18.995396 27.887236 -18.990341 27.968142 -0.57091987 123.26183
12908830000 -0.98063624 88.750053 -19.208757 26.686035 -19.208027 26.796309 -0.59444875 122.98564
12917825000 -0.9471854 87.601128 -19.425323 25.422701 -19.420778 25.532307 -0.64319533 122.19531
12926820000 -0.91373205 86.496574 -19.653051 24.211386 -19.650217 24.286173 -0.68776363 121.01026
12935815000 -0.88164711 85.459602 -19.897852 23.136908 -19.895737 23.207451 -0.69151556 119.79525
12944810000 -0.85469764 84.434288 -20.148947 22.232201 -20.150331 22.303514 -0.6421997 118.98212
12953805000 -0.82973933 83.429001 -20.391911 21.490526 -20.388918 21.58918 -0.57329684 118.75648
12962800000 -0.80482173 82.448059 -20.612568 20.692663 -20.606035 20.76527 -0.52680659 118.83599
12971795000 -0.78281015 81.495743 -20.806639 19.744322 -20.806438 19.833715 -0.52699333 118.76434
12980790000 -0.76212347 80.544418 -21.005163 18.669775 -20.998224 18.75824 -0.56684119 118.26228
12989785000 -0.74147707 79.635208 -21.201647 17.581169 -21.194555 17.661736 -0.62350279 117.25687
12998780000 -0.72289205 78.759995 -21.410915 16.565063 -21.410431 16.670471 -0.65891659 115.9547
13007775000 -0.70849723 77.895462 -21.63389 15.763168 -21.635229 15.872344 -0.63802475 114.90588
13016770000 -0.69308758 77.026695 -21.855499 15.120203 -21.850172 15.18366 -0.57309067 114.39233
13025765000 -0.67697215 76.176323 -22.051847 14.468832 -22.049343 14.589936 -0.50905174 114.35638
13034760000 -0.66307646 75.341248 -22.234993 13.714921 -22.231119 13.840314 -0.47822583 114.43167
13043755000 -0.64939755 74.507172 -22.403318 12.76837 -22.401728 12.90395 -0.49733263 114.23225
13052750000 -0.6360392 73.693512 -22.580215 11.736225 -22.574219 11.836317 -0.55787247 113.51898
13061745000 -0.62437063 72.900536 -22.763168 10.673995 -22.764189 10.821424 -0.61809415 112.35516
13070740000 -0.6148864 72.111481 -22.970196 9.8602734 -22.964392 9.9367504 -0.62992537 111.15472
13079735000 -0.60356539 71.334999 -23.161623 9.1525946 -23.164995 9.2938757 -0.5862118 110.33126
13088730000 -0.59035444 70.586716 -23.36792 8.5946178 -23.356661 8.7110062 -0.51831442 110.01186
13097725000 -0.57962275 69.844345 -23.547913 8.0283861 -23.543592 8.1490879 -0.45984322 110.04694
13106720000 -0.57180417 69.101852 -23.715162 7.3278103 -23.704237 7.4410086 -0.44971225 110.0548
13115715000 -0.56345648 68.38015 -23.876572 6.4533296 -23.861715 6.5604424 -0.49538422 109.66284
13124710000 -0.55721551 67.659546 -24.045742 5.5006537 -24.032246 5.5911679 -0.56012505 108.73617
13133705000 -0.54934639 66.939308 -24.220533 4.7000232 -24.215502 4.6791167 -0.6018188 107.58656
13142700000 -0.53954923 66.231827 -24.403742 3.9730706 -24.390993 4.0255699 -0.59338653 106.56603
13151695000 -0.53005844 65.553581 -24.578825 3.4362626 -24.579142 3.5140278 -0.53942382 105.96872
13160690000 -0.52184302 64.889603 -24.744049 2.9811497 -24.743563 3.0418117 -0.46696624 105.81944
13169685000 -0.51584315 64.236702 -24.898829 2.3366637 -24.892443 2.4356952 -0.42801398 105.8706
13178680000 -0.51285422 63.576653 -25.044752 1.5757385 -25.052113 1.7020984 -0.44658136 105.66074
13187675000 -0.51004314 62.901714 -25.211769 0.73370886 -25.209368 0.75710374 -0.50398308 105.00278
13196670000 -0.50488585 62.219868 -25.366903 -0.12771805 -25.36655 -0.088071033 -0.56259865 104.01548
13205665000 -0.49750304 61.549896 -25.536034 -0.88614875 -25.531271 -0.77681273 -0.59037638 102.93127
13214660000 -0.49003565 60.900906 -25.700211 -1.4137673 -25.699301 -1.3264445 -0.56066841 102.1039
13223655000 -0.48280096 60.286297 -25.851238 -1.8733712 -25.841398 -1.7676502 -0.48857224 101.74097
13232650000 -0.47950163 59.662849 -25.986937 -2.4335172 -25.991182 -2.2980514 -0.42942429 101.72018
13241645000 -0.47812524 59.034153 -26.133663 -3.0210154 -26.143391 -2.935437 -0.41817862 101.64938
13250640000 -0.4766326 58.38792 -26.271042 -3.7874711 -26.273504 -3.7294128 -0.45242217 101.25245
13259635000 -0.47221288 57.73608 -26.412716 -4.7018199 -26.41927 -4.6425433 -0.51812392 100.4901
13268630000 -0.46639556 57.088573 -26.571583 -5.548871 -26.578321 -5.4810581 -0.57386017 99.450806
13277625000 -0.45822537 56.474781 -26.733919 -6.2384496 -26.732349 -6.1240511 -0.57832342 98.445763
13286620000 -0.4531709 55.883804 -26.883942 -6.802393 -26.885242 -6.6111536 -0.52285576 97.824364
13295615000 -0.45019975 55.305233 -27.016342 -7.2187033 -27.023344 -7.0707359 -0.45410538 97.611679
13304610000 -0.45105523 54.702656 -27.158539 -7.7663717 -27.158266 -7.6431732 -0.41021097 97.546005
13313605000 -0.45013803 54.084946 -27.298943 -8.5334578 -27.293102 -8.4251204 -0.41200852 97.327377
13322600000 -0.44760111 53.474052 -27.453835 -9.3161993 -27.441107 -9.2367411 -0.4631798 96.801399
13331595000 -0.44223106 52.857605 -27.603785 -10.146498 -27.58502 -10.069425 -0.53379273 95.903503
13340590000 -0.43448526 52.271648 -27.741388 -10.960406 -27.739023 -10.846244 -0.5661357 94.872498
13349585000 -0.43025252 51.712536 -27.887339 -11.420188 -27.872915 -11.38184 -0.54188764 94.097824
13358580000 -0.43060979 51.164288 -28.016211 -11.795443 -28.011961 -11.764853 -0.48328933 93.699661
13367575000 -0.42924139 50.587135 -28.149195 -12.341908 -28.152117 -12.251114 -0.4210321 93.565948
13376570000 -0.43070355 49.980888 -28.2857 -12.946959 -28.276558 -12.786235 -0.39546439 93.451103
13385565000 -0.42944658 49.373745 -28.409353 -13.676073 -28.415602 -13.575063 -0.42397878 93.147331
13394560000 -0.42327043 48.765774 -28.559799 -14.604536 -28.555092 -14.428165 -0.49368203 92.436905
13403555000 -0.41560733 48.195782 -28.713852 -15.384566 -28.708063 -15.269051 -0.54781175 91.465843
13412550000 -0.40975577 47.663643 -28.844847 -16.004288 -28.832022 -15.933302 -0.55506063 90.571533
13421545000 -0.40983543 47.145649 -28.975378 -16.606054 -28.965345 -16.487562 -0.5164507 89.937141
13430540000 -0.41181925 46.600231 -29.104053 -17.023699 -29.093708 -16.970907 -0.44956094 89.604172
13439535000 -0.41350588 46.026924 -29.229855 -17.52713 -29.215551 -17.514118 -0.3945376 89.493279
13448530000 -0.4129231 45.434891 -29.354187 -18.287161 -29.351021 -18.179413 -0.39625382 89.310432
13457525000 -0.4098343 44.835049 -29.501877 -19.06068 -29.489096 -19.01033 -0.44888374 88.799438
13466520000 -0.40399677 44.270336 -29.649546 -20.032127 -29.660355 -19.974316 -0.51222938 87.983101
13475515000 -0.3987121 43.740414 -29.797762 -20.686792 -29.795961 -20.562914 -0.5497421 87.088409
13484510000 -0.39812165 43.212437 -29.941294 -21.188965 -29.935942 -21.241289 -0.53851002 86.303749
13493505000 -0.39993608 42.681938 -30.07139 -21.655466 -30.062931 -21.593504 -0.48005235 85.796272
13502500000 -0.39920843 42.129803 -30.183825 -22.242962 -30.17271 -22.106953 -0.41145554 85.602188
13511495000 -0.39967754 41.568195 -30.29637 -22.689804 -30.298183 -22.678988 -0.3833589 85.498215
13520490000 -0.39644411 40.985184 -30.416264 -23.554455 -30.412743 -23.519295 -0.41251972 85.162804
13529485000 -0.39054412 40.441288 -30.565804 -24.407351 -30.557121 -24.399397 -0.47211331 84.536026
13538480000 -0.38717088 39.913536 -30.733204 -25.424376 -30.725315 -25.304539 -0.529194 83.706818
13547475000 -0.38721448 39.398685 -30.870878 -25.940353 -30.85955 -26.058739 -0.54919803 82.844666
13556470000 -0.38766137 38.864017 -31.004391 -26.499237 -30.994823 -26.471867 -0.51176047 82.155167
13565465000 -0.38791212 38.336624 -31.113953 -26.974485 -31.116602 -26.955858 -0.44160116 81.809456
13574460000 -0.38816997 37.777363 -31.246176 -27.654264 -31.250019 -27.488405 -0.39071235 81.653099
13583455000 -0.38476467 37.218651 -31.389004 -28.409498 -31.383011 -28.286024 -0.38745221 81.408646
13592450000 -0.37996358 36.689293 -31.545055 -29.135357 -31.542934 -29.121532 -0.43072328 80.966293
13601445000 -0.37798634 36.175396 -31.70805 -30.067846 -31.697033 -29.959864 -0.4966076 80.280586
13610440000 -0.3776195 35.644569 -31.849102 -30.807846 -31.851564 -30.637665 -0.54202873 79.413422
13619435000 -0.37711269 35.117939 -31.990973 -31.465118 -31.98691 -31.387831 -0.53239232 78.621666
13628430000 -0.37702572 34.596821 -32.119297 -31.919243 -32.105984 -31.995724 -0.47606671 78.142036
13637425000 -0.37825462 34.056107 -32.259796 -32.574486 -32.249474 -32.490719 -0.41388488 77.875549
13646420000 -0.37422529 33.49963 -32.409264 -33.352863 -32.405876 -33.209095 -0.38513833 77.686447
13655415000 -0.37036318 32.98587 -32.564693 -34.014286 -32.575371 -34.121223 -0.40249556 77.392647
13664410000 -0.36961928 32.458389 -32.755669 -34.750374 -32.764614 -34.806927 -0.46086234 76.850403
13673405000 -0.36977741 31.940153 -32.915878 -35.481354 -32.924168 -35.562695 -0.5201214 76.047829
13682400000 -0.36880848 31.415907 -33.073124 -36.175915 -33.088211 -36.111294 -0.5388183 75.200684
13691395000 -0.36885047 30.89719 -33.225002 -36.77422 -33.23325 -36.746086 -0.50570011 74.550797
13700390000 -0.36767238 30.36624 -33.385143 -37.207481 -33.384338 -37.230701 -0.44784072 74.127983
13709385000 -0.36286142 29.842894 -33.53159 -37.647686 -33.522705 -37.701511 -0.39403191 73.889793
13718380000 -0.36131251 29.342312 -33.666557 -38.220585 -33.679405 -38.354485 -0.38375419 73.680695
13727375000 -0.36260283 28.833059 -33.840878 -39.186672 -33.871094 -39.040516 -0.42352957 73.281601
13736370000 -0.3624742 28.27877 -34.017624 -39.878288 -34.059357 -39.793938 -0.48530063 72.638367
13745365000 -0.36196718 27.763281 -34.227383 -40.651672 -34.238647 -40.458923 -0.52495885 71.856728
13754360000 -0.36131981 27.238953 -34.38076 -41.147358 -34.408493 -40.975147 -0.52245319 71.124588
13763355000 -0.3587814 26.700119 -34.552696 -41.704327 -34.555233 -41.435623 -0.47959414 70.563828
13772350000 -0.35435465 26.190414 -34.717266 -42.109489 -34.722061 -41.88171 -0.41699564 70.215401
13781345000 -0.3522321 25.703157 -34.885841 -42.720158 -34.895222 -42.63493 -0.38172719 70.003273
13790340000 -0.3530491 25.195879 -35.073708 -43.23336 -35.070095 -42.985119 -0.39509183 69.720009
13799335000 -0.35335571 24.657234 -35.260418 -43.707653 -35.246193 -43.52877 -0.444731 69.213989
13808330000 -0.35287136 24.1383 -35.501961 -44.315372 -35.457661 -44.192051 -0.49566537 68.527847
13817325000 -0.35413474 23.594629 -35.68541 -44.872364 -35.676476 -44.583866 -0.52047449 67.784187
13826320000 -0.35232446 23.052364 -35.845596 -45.131096 -35.861923 -45.079327 -0.50055784 67.103546
13835315000 -0.34564754 22.539257 -36.009312 -45.608879 -35.992584 -45.528908 -0.4452022 66.635666
13844310000 -0.34529912 22.058704 -36.138996 -45.879513 -36.154518 -45.890831 -0.39447865 66.36116
13853305000 -0.34647563 21.554762 -36.368515 -46.012184 -36.33815 -46.224972 -0.38274962 66.090363
13862300000 -0.34473327 21.039158 -36.566059 -46.490692 -36.560474 -46.523552 -0.41069293 65.696198
13871295000 -0.34568006 20.520166 -36.758595 -47.013393 -36.739792 -47.185242 -0.46255228 65.133713
13880290000 -0.34681571 19.9814 -36.953449 -47.342987 -36.969368 -47.34248 -0.50557768 64.412033
13889285000 -0.34179646 19.433765 -37.15493 -47.56517 -37.167301 -47.392185 -0.5107637 63.664391
13898280000 -0.33738896 18.926897 -37.341015 -47.82769 -37.299866 -47.69083 -0.47214621 63.067917
13907275000 -0.33662021 18.445702 -37.441139 -47.99044 -37.477287 -47.923569 -0.41843033 62.659664
13916270000 -0.3367928 17.9312 -37.630222 -47.948128 -37.638973 -48.163849 -0.38378248 62.363918
13925265000 -0.33620343 17.416182 -37.792805 -48.142365 -37.788376 -48.294506 -0.38527748 62.027901
13934260000 -0.33738336 16.900167 -37.963116 -48.396336 -37.971394 -48.565399 -0.42327729 61.605049
13943255000 -0.3386884 16.360027 -38.206585 -48.99786 -38.180313 -48.800774 -0.47587666 61.003166
13952250000 -0.33514437 15.823037 -38.36599 -49.118462 -38.377865 -49.05743 -0.5009715 60.299091
13961245000 -0.33215505 15.324375 -38.485031 -49.363686 -38.494736 -49.501255 -0.48624641 59.667736
13970240000 -0.33387923 14.830426 -38.630672 -49.783478 -38.643154 -49.548767 -0.44346941 59.200794
13979235000 -0.33554369 14.303704 -38.775108 -49.698669 -38.792267 -49.697933 -0.4020074 58.835812
13988230000 -0.33457759 13.784587 -38.945793 -49.7253 -38.984863 -49.629738 -0.38368663 58.504833
13997225000 -0.33610973 13.264278 -39.123913 -49.832539 -39.158264 -49.926704 -0.4056778 58.130028
14006220000 -0.33688903 12.710477 -39.33078 -50.035202 -39.304054 -49.965656 -0.45563227 57.572586
14015215000 -0.3309615 12.177113 -39.503212 -50.042725 -39.483917 -50.307587 -0.49472684 56.899246
14024210000 -0.32877243 11.685367 -39.60569 -50.364986 -39.659603 -50.520439 -0.50167227 56.223705
14033205000 -0.32947388 11.182111 -39.769104 -50.341328 -39.772533 -50.23521 -0.47420549 55.651852
14042200000 -0.33126292 10.656652 -39.884632 -50.287655 -39.845322 -50.167496 -0.43117294 55.22121
14051195000 -0.32817468 10.148273 -39.999481 -50.402508 -40.00629 -50.227974 -0.39525485 54.903004
14060190000 -0.33130118 9.6434622 -40.101273 -50.456913 -40.111046 -50.582493 -0.39730749 54.583645
14069185000 -0.3303017 9.0896606 -40.245228 -50.963062 -40.240433 -50.668743 -0.43491957 54.118645
14078180000 -0.32590163 8.5840158 -40.321041 -51.322937 -40.359474 -51.240009 -0.48047999 53.510201
14087175000 -0.32531458 8.1140633 -40.462208 -51.417191 -40.482601 -51.775948 -0.50495243 52.859982
14096170000 -0.32893327 7.6185794 -40.592155 -52.091457 -40.614697 -51.996971 -0.49716893 52.250076
14105165000 -0.33111039 7.0908213 -40.694153 -52.601711 -40.714329 -52.227291 -0.45941994 51.731682
14114160000 -0.33114278 6.5790181 -40.788109 -52.741734 -40.828785 -52.743492 -0.41866463 51.375023
14123155000 -0.33502245 6.0292659 -40.910572 -53.294079 -40.931808 -53.211254 -0.40212271 51.078777
14132150000 -0.33118078 5.4512701 -40.993816 -53.579937 -41.003284 -53.784966 -0.42425105 50.702061
14141145000 -0.32509139 4.9475422 -41.156296 -54.482262 -41.13633 -54.401581 -0.46509594 50.198143
14150140000 -0.32438982 4.4734254 -41.283115 -55.51947 -41.302944 -55.255959 -0.50237924 49.570011
14159135000 -0.32573283 3.9583375 -41.396919 -56.125782 -41.409893 -56.274525 -0.5133189 48.917561
14168130000 -0.32556289 3.4518099 -41.5933 -57.006763 -41.592331 -56.753529 -0.4897708 48.333889
14177125000 -0.32590637 2.9389462 -41.714706 -58.131672 -41.689144 -57.794781 -0.4464362 47.904526
14186120000 -0.32957554 2.4216087 -41.852489 -58.766682 -41.834351 -58.558601 -0.41631469 47.569012
14195115000 -0.32622364 1.8514607 -42.02993 -60.396564 -42.034164 -60.088085 -0.41601327 47.21627
14204110000 -0.32181323 1.3667588 -42.169582 -61.632656 -42.211517 -61.187759 -0.44447351 46.780018
14213105000 -0.32244775 0.86197084 -42.443474 -62.477497 -42.401855 -62.475624 -0.48713708 46.223354
14222100000 -0.32367024 0.33736694 -42.676437 -63.968136 -42.62714 -63.618965 -0.51249826 45.589649
14231095000 -0.32144108 -0.19428994 -42.889458 -65.099449 -42.853985 -64.72747 -0.50631928 44.974995
14240090000 -0.32320812 -0.68767661 -43.128757 -66.53302 -43.10714 -66.110245 -0.47146171 44.495464
14249085000 -0.32415161 -1.2110829 -43.373585 -67.940018 -43.342377 -67.297508 -0.43564123 44.126888
14258080000 -0.32060352 -1.7497491 -43.632568 -69.261246 -43.602875 -68.840225 -0.42041522 43.800255
14267075000 -0.31646079 -2.233885 -43.969364 -70.584129 -44.01844 -70.469337 -0.43267578 43.414368
14276070000 -0.32210761 -2.7485044 -44.273266 -71.797844 -44.223782 -71.633224 -0.46807554 42.944099
14285065000 -0.32244998 -3.2956369 -44.631943 -73.34108 -44.595757 -72.958237 -0.50158745 42.360508
14294060000 -0.32057789 -3.8252621 -45.021702 -74.840408 -44.996304 -74.700752 -0.51111895 41.731144
14303055000 -0.31946245 -4.348628 -45.437527 -76.335487 -45.429279 -76.240417 -0.48897693 41.195557
14312050000 -0.32048258 -4.8831959 -45.839195 -77.832878 -45.851509 -77.612572 -0.45339903 40.768456
14321045000 -0.31618181 -5.426827 -46.256374 -79.316933 -46.274418 -79.080727 -0.42522615 40.415775
14330040000 -0.31202912 -5.8855791 -46.7402 -80.774391 -46.761753 -80.547485 -0.42122719 40.076668
14339035000 -0.31670469 -6.382062 -47.27993 -82.168304 -47.276928 -81.760544 -0.44503501 39.658909
14348030000 -0.3168222 -6.9348974 -47.849121 -83.690445 -47.820435 -83.103752 -0.48001072 39.08913
14357025000 -0.315146 -7.4623251 -48.491543 -85.031082 -48.445621 -84.518791 -0.4994103 38.47451
14366020000 -0.31409928 -7.9859872 -49.112831 -86.173973 -49.092274 -85.921623 -0.49050686 37.904697
14375015000 -0.31573835 -8.5481443 -49.723515 -87.457535 -49.73431 -87.272186 -0.4613114 37.424335
14384010000 -0.30847117 -9.0850725 -50.407276 -88.770264 -50.41235 -88.375145 -0.42702281 37.042953
14393005000 -0.30786705 -9.5512581 -51.177143 -89.912933 -51.138885 -89.299599 -0.40776664 36.717182
14402000000 -0.31053242 -10.078576 -51.972782 -90.873703 -51.920059 -90.253342 -0.41754252 36.333931
14410995000 -0.30885693 -10.613193 -52.801582 -92.161942 -52.720562 -91.460213 -0.44572765 35.837139
14419990000 -0.30753192 -11.138764 -53.64642 -93.76786 -53.631771 -93.307869 -0.47210175 35.223862
14428985000 -0.30829111 -11.666353 -54.667419 -95.346062 -54.625389 -94.846504 -0.47967276 34.597111
14437980000 -0.31011564 -12.223447 -55.662415 -97.501686 -55.647236 -96.851624 -0.46177921 34.023666
14446975000 -0.30653456 -12.75108 -56.858234 -99.111252 -56.830021 -99.116646 -0.42799655 33.553165
14455970000 -0.30773282 -13.236689 -58.327087 -102.31417 -58.176434 -101.79344 -0.39845562 33.172085
14464965000 -0.31196654 -13.789462 -59.915588 -106.24557 -59.882965 -105.07476 -0.39240497 32.794888
14473960000 -0.31204107 -14.357357 -61.874866 -110.22395 -61.709888 -108.75159 -0.4102138 32.347088
14482955000 -0.30901206 -14.892575 -64.109566 -116.69697 -63.703831 -115.96717 -0.43602815 31.803932
14491950000 -0.30777535 -15.448334 -66.373032 -128.90823 -65.902283 -129.47104 -0.45172068 31.203207
14500945000 -0.30664346 -16.0133 -69.294754 -150.99127 -68.273834 -150.95792 -0.44753426 30.627024
14509940000 -0.30203474 -16.535606 -70.484871 176.3757 -69.71904 176.94196 -0.42037845 30.133774
14518935000 -0.3051286 -17.022747 -68.931938 141.80197 -68.443039 146.46964 -0.39058179 29.73929
14527930000 -0.3094829 -17.581005 -66.184883 124.2835 -65.873833 128.3718 -0.37506589 29.375313
14536925000 -0.30537465 -18.125774 -63.704964 115.69468 -63.332066 117.78059 -0.38136032 28.9617
14545920000 -0.3031213 -18.662415 -61.813198 109.43129 -61.473549 111.12444 -0.40496507 28.445917
14554915000 -0.30396187 -19.21328 -60.20459 105.76337 -59.967098 106.55212 -0.42846537 27.837534
14563910000 -0.30097285 -19.787125 -58.858681 103.28386 -58.755035 104.26155 -0.43651959 27.211781
14572905000 -0.29825372 -20.285212 -57.74506 101.32683 -57.549454 101.91074 -0.42148218 26.654209
14581900000 -0.30444053 -20.798489 -56.546696 99.911636 -56.445293 99.438622 -0.39133975 26.196306
14590895000 -0.30922607 -21.389463 -55.605988 98.42897 -55.597218 98.297913 -0.36720362 25.825247
14599890000 -0.30667734 -21.940453 -54.74754 97.374245 -54.721249 97.879677 -0.36176684 25.442486
14608885000 -0.3047615 -22.47299 -54.023266 96.927383 -54.013027 97.565102 -0.37790558 24.999365
14617880000 -0.30547631 -23.063515 -53.349499 96.816566 -53.293423 97.057999 -0.40341327 24.449381
14626875000 -0.29922453 -23.630833 -52.615383 96.378738 -52.656719 97.261017 -0.42141345 23.840572
14635870000 -0.2970517 -24.134127 -51.972607 96.254364 -51.937496 96.870026 -0.41832998 23.258076
14644865000 -0.30442163 -24.67227 -51.358051 95.791458 -51.233578 96.357628 -0.39626035 22.765194
14653860000 -0.306604 -25.265596 -50.728989 95.639687 -50.640697 95.730103 -0.37105078 22.352917
14662855000 -0.30339414 -25.812357 -50.105133 95.348434 -50.044434 95.221779 -0.35647908 21.96401
14671850000 -0.30224398 -26.343262 -49.525013 94.695747 -49.494274 94.934639 -0.36140001 21.510942
14680845000 -0.30204612 -26.890779 -49.019791 94.283379 -48.994114 94.371574 -0.38436589 20.978346
14689840000 -0.29600129 -27.437323 -48.5536 93.984177 -48.509048 94.324242 -0.40721077 20.351294
14698835000 -0.29893613 -27.916904 -48.050419 93.506004 -48.016602 93.704247 -0.41282403 19.722328
14707830000 -0.30791679 -28.476959 -47.556942 93.115845 -47.531311 93.022011 -0.39764562 19.162901
14716825000 -0.31083465 -29.092466 -47.06422 92.519035 -47.044361 92.70224 -0.37113339 18.7024
14725820000 -0.30743858 -29.658918 -46.591995 91.868423 -46.575443 91.768959 -0.34916621 18.334318
14734815000 -0.30689737 -30.229841 -46.159725 90.93885 -46.218948 90.889236 -0.34474364 17.947418
14743810000 -0.30564073 -30.836914 -45.777485 90.267258 -45.84671 90.377975 -0.36028892 17.501019
14752805000 -0.29741731 -31.36149 -45.416111 89.407509 -45.45821 89.726913 -0.38530973 16.953886
14761800000 -0.30274546 -31.864431 -45.09309 88.937523 -45.11594 89.314529 -0.39974308 16.327595
14770795000 -0.31110799 -32.46719 -44.731995 88.500732 -44.736366 88.829247 -0.39706185 15.730149
14779790000 -0.31233397 -33.090797 -44.3601 87.829926 -44.358273 88.231178 -0.37847066 15.213169
14788785000 -0.30729687 -33.653664 -44.000008 86.86013 -44.019337 87.271011 -0.3561582 14.785131
14797780000 -0.30608344 -34.237507 -43.696335 85.995735 -43.732101 86.451538 -0.34141645 14.377533
14806775000 -0.3030369 -34.820835 -43.387871 85.306389 -43.416214 85.986839 -0.34769508 13.952882
14815770000 -0.29595944 -35.336296 -43.089005 84.87281 -43.138496 85.366859 -0.36577705 13.42211
14824765000 -0.30388913 -35.810043 -42.83535 84.208969 -42.834957 84.809967 -0.38538894 12.800968
14833760000 -0.31510675 -36.441547 -42.560108 83.798622 -42.554947 84.344215 -0.39115959 12.184701
14842755000 -0.3151755 -37.062428 -42.27145 83.273125 -42.255833 83.946678 -0.37932765 11.623757
14851750000 -0.31131685 -37.640644 -41.93018 82.60556 -41.951359 83.224052 -0.35657126 11.152865
14860745000 -0.31357169 -38.256104 -41.6651 81.687599 -41.685925 82.46225 -0.33635923 10.766337
14869740000 -0.30825499 -38.848351 -41.419544 80.892799 -41.429157 81.663078 -0.33323157 10.388137
14878735000 -0.30153498 -39.346382 -41.198067 80.255409 -41.170616 81.04541 -0.34897855 9.9250097
14887730000 -0.31330487 -39.875473 -40.966846 79.875282 -40.924278 80.595184 -0.36998543 9.3454943
14896725000 -0.32368752 -40.501244 -40.705589 79.485039 -40.639545 80.172409 -0.38365862 8.7115927
14905720000 -0.31828821 -41.12579 -40.44455 78.802696 -40.407513 79.509262 -0.38286921 8.0829172
14914715000 -0.3156746 -41.703175 -40.197742 78.356712 -40.142467 78.776054 -0.36541265 7.5362539
14923710000 -0.31858656 -42.32069 -39.947857 77.879295 -39.88678 78.177498 -0.34221825 7.1002517
14932705000 -0.31348461 -42.914452 -39.684731 77.406784 -39.654873 77.499458 -0.32896566 6.7253175
14941700000 -0.30951127 -43.402378 -39.50771 76.656906 -39.443943 76.71225 -0.33551851 6.3082323
14950695000 -0.32150742 -43.945564 -39.256638 76.42437 -39.195457 76.175331 -0.35125247 5.8158178
14959690000 -0.33053577 -44.598999 -39.02002 75.784767 -38.980408 75.269432 -0.37163135 5.2316132
14968685000 -0.33047932 -45.223854 -38.824566 75.11702 -38.726875 74.574196 -0.38105258 4.5838156
14977680000 -0.32899693 -45.847744 -38.589401 74.378349 -38.522728 74.221542 -0.37224641 3.9754694
14986675000 -0.32956186 -46.488728 -38.309223 73.773415 -38.274605 73.524193 -0.35049334 3.4864154
14995670000 -0.3247703 -47.105057 -38.106571 72.829147 -38.098297 72.603371 -0.33098298 3.0752194
15004665000 -0.31980431 -47.608448 -37.933636 72.434227 -37.882813 71.837128 -0.32807052 2.6940114
15013660000 -0.33151519 -48.182835 -37.667519 71.481453 -37.67598 70.942116 -0.33832097 2.2420812
15022655000 -0.33721521 -48.815197 -37.434925 70.811096 -37.456879 70.512039 -0.3584356 1.7084919
15031650000 -0.33508453 -49.410149 -37.268162 69.992798 -37.266083 69.826416 -0.37555441 1.0811412
15040645000 -0.3361212 -50.00119 -37.064926 69.343643 -37.0611 69.154686 -0.37399167 0.45193261
15049640000 -0.34010693 -50.646683 -36.833462 68.659805 -36.857533 68.490837 -0.35759622 -0.10383548
15058635000 -0.33497882 -51.252712 -36.636845 67.656517 -36.683449 67.478561 -0.33723703 -0.56672531
15067630000 -0.33540329 -51.779922 -36.436142 66.790009 -36.499073 66.830658 -0.32680216 -0.9742009
15076625000 -0.34754449 -52.374916 -36.278965 66.076866 -36.325928 65.837814 -0.32934067 -1.3991159
15085620000 -0.3497262 -53.021866 -36.092373 65.40126 -36.131187 65.274536 -0.34834293 -1.9039434
15094615000 -0.34934968 -53.64595 -35.921421 64.772736 -35.995449 64.726326 -0.36671913 -2.5288262
15103610000 -0.35367444 -54.278774 -35.727459 63.91782 -35.809261 64.205124 -0.3735854 -3.1788232
15112605000 -0.35152611 -54.968491 -35.588768 63.152065 -35.635235 63.52985 -0.36511308 -3.7760231
15121600000 -0.34588158 -55.575268 -35.380917 62.540813 -35.4109 62.848743 -0.34650674 -4.286603
15130595000 -0.35021299 -56.137558 -35.226974 61.866325 -35.248337 62.128708 -0.33037516 -4.7066703
15139590000 -0.35682923 -56.768005 -35.014393 61.191105 -35.064987 61.517139 -0.32932812 -5.0992198
15148585000 -0.35666877 -57.401485 -34.842365 60.189484 -34.858486 60.730175 -0.34628612 -5.5707793
15157580000 -0.35522768 -57.992985 -34.637459 59.642639 -34.657391 60.069321 -0.36782339 -6.1763868
15166575000 -0.35868019 -58.610023 -34.493301 58.848099 -34.500572 59.307598 -0.38034245 -6.8687654
15175570000 -0.35960132 -59.248722 -34.297688 58.172741 -34.318893 58.615948 -0.37951043 -7.5586691
15184565000 -0.35852134 -59.830456 -34.139027 57.576679 -34.122414 57.845356 -0.36192188 -8.1574564
15193560000 -0.36706474 -60.415653 -33.975761 56.819614 -33.92968 57.155087 -0.33886164 -8.6162395
15202555000 -0.37652233 -61.07946 -33.774574 56.135807 -33.732407 56.158485 -0.32955375 -8.9615116
15211550000 -0.37670159 -61.718937 -33.591484 55.146854 -33.591614 55.140923 -0.33843851 -9.3396482
15220545000 -0.38247344 -62.367516 -33.454395 54.154987 -33.430576 54.229725 -0.36006898 -9.8570099
15229540000 -0.38505319 -63.04137 -33.271019 53.376839 -33.255035 53.588802 -0.38387665 -10.483762
15238535000 -0.38297439 -63.71447 -33.109642 52.579094 -33.098183 52.585751 -0.39572468 -11.195299
15247530000 -0.38290739 -64.3367 -32.957237 51.995937 -32.936245 52.093742 -0.38953143 -11.888989
15256525000 -0.39602357 -64.983421 -32.796425 50.950527 -32.747673 51.147652 -0.36916044 -12.449394
15265520000 -0.4024595 -65.663483 -32.636292 50.188236 -32.594715 50.275776 -0.35375813 -12.857537
15274515000 -0.40432119 -66.315865 -32.463638 49.277813 -32.453808 49.513477 -0.35352141 -13.225143
15283510000 -0.40755281 -66.949966 -32.284168 48.468494 -32.265396 48.654041 -0.36787581 -13.659384
15292505000 -0.40887913 -67.642563 -32.155476 47.75771 -32.106133 47.909729 -0.39152643 -14.204302
15301500000 -0.40135661 -68.267868 -31.976349 46.984371 -31.936726 47.034794 -0.41268882 -14.892447
15310495000 -0.40370443 -68.840088 -31.800287 46.364922 -31.770403 46.174706 -0.41441223 -15.61202
15319490000 -0.41439772 -69.476433 -31.634493 45.292572 -31.608913 45.372162 -0.39859861 -16.250484
15328485000 -0.42043406 -70.147461 -31.481367 44.533127 -31.456106 44.545631 -0.3812761 -16.729435
15337480000 -0.42626974 -70.78997 -31.325092 43.685905 -31.290043 43.491283 -0.37524679 -17.134144
15346475000 -0.43447381 -71.463638 -31.153812 42.798477 -31.120872 42.652176 -0.38019863 -17.536549
15355470000 -0.43864393 -72.189926 -30.967682 41.924103 -30.968281 41.886356 -0.40239844 -18.000238
15364465000 -0.43272841 -72.871597 -30.78875 40.986668 -30.792532 40.932789 -0.4260987 -18.627571
15373460000 -0.43788484 -73.474617 -30.624048 40.008572 -30.61404 40.010777 -0.43734515 -19.341686
15382455000 -0.45331398 -74.179588 -30.465273 39.142765 -30.463091 39.045151 -0.43091851 -20.014351
15391450000 -0.4578037 -74.885178 -30.309984 38.11137 -30.298714 37.97744 -0.41886929 -20.604855
15400445000 -0.45987058 -75.554543 -30.145456 37.101795 -30.16367 37.05175 -0.40654472 -21.091448
15409440000 -0.46672702 -76.250565 -29.970055 36.124435 -29.991411 36.057083 -0.40546209 -21.508343
15418435000 -0.46834657 -76.954842 -29.796619 34.938148 -29.813694 34.954491 -0.42145878 -21.938723
15427430000 -0.46716774 -77.600906 -29.638142 33.907406 -29.65295 33.789898 -0.44650966 -22.507526
15436425000 -0.48060489 -78.249435 -29.494509 32.848686 -29.529703 32.789944 -0.46435034 -23.169653
15445420000 -0.49287382 -78.957039 -29.367741 31.909992 -29.370472 31.927122 -0.4709112 -23.841116
15454415000 -0.49371248 -79.684517 -29.188873 30.865976 -29.210262 30.914946 -0.46691608 -24.498018
15463410000 -0.49847326 -80.372978 -29.023146 29.760818 -29.044039 29.79812 -0.45554519 -25.065586
15472405000 -0.50576061 -81.092926 -28.876738 28.597935 -28.89945 28.729019 -0.44879991 -25.527489
15481400000 -0.50306368 -81.792763 -28.721777 27.416674 -28.722494 27.62962 -0.46124893 -25.955606
15490395000 -0.50751233 -82.39315 -28.560938 26.346716 -28.55138 26.410425 -0.48335239 -26.478153
15499390000 -0.52209377 -83.02359 -28.408524 25.045052 -28.428488 25.275242 -0.50471342 -27.075853
15508385000 -0.53987813 -83.775772 -28.26837 23.856874 -28.262571 24.102505 -0.52358115 -27.71422
15517380000 -0.55052012 -84.535591 -28.142624 22.805098 -28.124828 22.886278 -0.53413665 -28.411768
15526375000 -0.55870849 -85.255547 -27.984467 21.490452 -27.951239 21.622423 -0.53020293 -29.056145
15535370000 -0.56510103 -86.056664 -27.826784 20.331047 -27.813776 20.276535 -0.52564245 -29.558119
15544365000 -0.56102777 -86.787201 -27.684723 18.990774 -27.660135 18.96464 -0.53394026 -30.010302
15553360000 -0.56214607 -87.394257 -27.522215 17.569672 -27.523125 17.513168 -0.55381918 -30.503628
15562355000 -0.58037215 -88.047356 -27.400118 16.316896 -27.399618 16.252396 -0.57919264 -31.045382
15571350000 -0.5974502 -88.784149 -27.289316 14.941454 -27.265514 14.943969 -0.60611802 -31.660059
15580345000 -0.60405475 -89.513016 -27.154999 13.811387 -27.134901 13.718243 -0.62985981 -32.393921
15589340000 -0.61411464 -90.251144 -26.988024 12.541791 -26.988972 12.332488 -0.63313138 -33.093975
15598335000 -0.62307191 -91.040482 -26.842051 11.005044 -26.848436 10.904174 -0.63420427 -33.661854
15607330000 -0.62167287 -91.761139 -26.707521 9.4702234 -26.713606 9.4409895 -0.64434785 -34.149296
15616325000 -0.62720948 -92.384521 -26.574696 8.0042591 -26.566444 7.9656076 -0.65841985 -34.586945
15625320000 -0.64547819 -93.054054 -26.443743 6.5172267 -26.451818 6.4185658 -0.68846881 -35.040684
15634315000 -0.66160327 -93.767723 -26.30788 4.9275231 -26.332321 4.8201137 -0.72923595 -35.568367
15643310000 -0.67294407 -94.495804 -26.173409 3.2633154 -26.210423 3.3285577 -0.76582259 -36.244873
15652305000 -0.69101566 -95.227531 -26.041357 1.701611 -26.066397 1.8021172 -0.78667063 -36.953751
15661300000 -0.704561 -96.05674 -25.914927 -0.11217462 -25.919949 -0.0067451689 -0.80055785 -37.572742
15670295000 -0.70968825 -96.792671 -25.79166 -1.8938292 -25.80974 -2.0446503 -0.81488001 -38.104301
15679290000 -0.72067785 -97.466873 -25.663088 -3.8486314 -25.714827 -3.9312751 -0.83083278 -38.550488
15688285000 -0.73837358 -98.184624 -25.577826 -5.9214497 -25.643425 -5.7701845 -0.85834372 -38.938709
15697280000 -0.74968928 -98.905487 -25.525457 -7.8950233 -25.554214 -7.5531707 -0.90283817 -39.386444
15706275000 -0.76118755 -99.610214 -25.443729 -9.7214174 -25.461004 -9.4771338 -0.9504444 -39.951138
15715270000 -0.77850842 -100.38081 -25.383738 -11.729569 -25.399343 -11.422406 -0.9823373 -40.509106
15724265000 -0.79219681 -101.17428 -25.319958 -13.758529 -25.321854 -13.39073 -1.007338 -41.049564
15733260000 -0.79897106 -101.88711 -25.269499 -15.97412 -25.258833 -15.708926 -1.0293039 -41.544739
15742255000 -0.81076545 -102.55515 -25.243675 -18.149542 -25.239384 -17.958328 -1.0468541 -41.893997
15751250000 -0.82792473 -103.28714 -25.242594 -20.22863 -25.239485 -20.066008 -1.0756156 -42.141155
15760245000 -0.83703345 -103.98998 -25.237518 -22.459917 -25.244207 -22.16926 -1.1186177 -42.407177
15769240000 -0.85011983 -104.66079 -25.271866 -24.624971 -25.252031 -24.312044 -1.1620233 -42.793064
15778235000 -0.87228173 -105.41195 -25.305153 -26.641693 -25.267834 -26.535954 -1.1994008 -43.232716
15787230000 -0.87953269 -106.16931 -25.329475 -28.848309 -25.305763 -28.920218 -1.2295032 -43.646839
15796225000 -0.8893553 -106.86482 -25.385265 -31.183912 -25.387165 -31.243113 -1.240623 -44.031647
15805220000 -0.90610683 -107.57008 -25.487524 -33.561619 -25.494398 -33.416924 -1.2369846 -44.296963
15814215000 -0.91647851 -108.31537 -25.61965 -35.641945 -25.595558 -35.450001 -1.24149 -44.420033
15823210000 -0.92057806 -108.99928 -25.730814 -37.731274 -25.71018 -37.708126 -1.2626072 -44.541519
15832205000 -0.9334985 -109.67819 -25.876637 -39.97311 -25.869574 -39.83847 -1.2816726 -44.731987
15841200000 -0.94367468 -110.39781 -26.060293 -42.168736 -26.046072 -41.968277 -1.2966017 -45.018387
15850195000 -0.94629854 -111.1412 -26.284445 -44.25349 -26.24309 -44.014057 -1.3038411 -45.403931
15859190000 -0.95021594 -111.83969 -26.534986 -45.969067 -26.497526 -45.892418 -1.2934158 -45.847946
15868185000 -0.96503884 -112.59903 -26.797491 -47.605915 -26.757183 -47.555206 -1.259714 -46.17561
15877180000 -0.96805602 -113.40129 -27.096991 -49.19828 -27.040211 -49.117035 -1.2310475 -46.33392
15886175000 -0.96734148 -114.13622 -27.411163 -50.279659 -27.360979 -50.383274 -1.2086461 -46.481224
15895170000 -0.96987253 -114.89866 -27.736618 -51.283283 -27.690727 -51.286797 -1.1897651 -46.696743
15904165000 -0.96956766 -115.69059 -28.043116 -52.062595 -28.012531 -52.175262 -1.1808962 -46.952175
15913160000 -0.96748799 -116.43174 -28.37977 -52.650696 -28.346029 -52.827785 -1.1745476 -47.366741
15922155000 -0.97173184 -117.14619 -28.702919 -52.745071 -28.682074 -53.097752 -1.1499114 -47.899124
15931150000 -0.9848907 -117.94603 -29.002073 -52.861965 -28.999615 -53.185375 -1.1113307 -48.405193
15940145000 -0.98632604 -118.78603 -29.37113 -52.77726 -29.360685 -53.093735 -1.0716451 -48.846004
15949140000 -0.98943537 -119.59094 -29.706194 -52.163284 -29.718992 -52.301884 -1.0374371 -49.302521
15958135000 -0.99473506 -120.41309 -29.985277 -51.142826 -29.967794 -51.377293 -1.0039504 -49.7206
15967130000 -0.99066478 -121.24434 -30.237684 -49.90237 -30.241747 -50.261211 -0.98622108 -50.104416
15976125000 -0.98646444 -122.0134 -30.448895 -48.628326 -30.440195 -48.862717 -0.96970034 -50.604427
15985120000 -0.99233752 -122.77652 -30.621193 -47.284271 -30.63974 -47.634109 -0.94680744 -51.226917
15994115000 -1.0055779 -123.61727 -30.804607 -45.602467 -30.813976 -46.035614 -0.91746002 -51.797745
16003110000 -1.0076907 -124.48637 -30.872278 -43.950401 -30.914295 -44.056278 -0.88826799 -52.350662
16012105000 -1.0120322 -125.32176 -30.948263 -42.199314 -30.987303 -42.243675 -0.85859764 -52.915672
16021100000 -1.0218568 -126.21368 -30.958975 -40.258183 -31.001207 -40.360004 -0.83270121 -53.395447
16030095000 -1.0231097 -127.13347 -30.900341 -38.647793 -30.950039 -38.684353 -0.81580889 -53.854961
16039090000 -1.0231481 -127.97141 -30.82333 -37.073315 -30.854799 -37.137566 -0.80834287 -54.445957
16048085000 -1.0335482 -128.82335 -30.724966 -35.657585 -30.742117 -35.616776 -0.79356706 -55.113373
16057080000 -1.0448722 -129.72229 -30.611782 -34.271057 -30.625841 -34.139782 -0.77383536 -55.761471
16066075000 -1.0486004 -130.61021 -30.451077 -32.848778 -30.471188 -32.854401 -0.75865126 -56.422821
16075070000 -1.0592812 -131.49577 -30.250999 -31.674501 -30.287254 -31.61347 -0.73461282 -57.059311
16084065000 -1.0711697 -132.42216 -30.047167 -30.851122 -30.064293 -30.756916 -0.71123272 -57.60762
16093060000 -1.0754389 -133.33806 -29.841753 -30.199652 -29.86484 -30.067783 -0.69784808 -58.102234
16102055000 -1.079527 -134.20189 -29.60887 -29.642139 -29.626001 -29.545326 -0.69062388 -58.686256
16111050000 -1.0943651 -135.09195 -29.381273 -29.207836 -29.407898 -29.313669 -0.68339527 -59.301315
16120045000 -1.105667 -136.04738 -29.159178 -28.85008 -29.190319 -28.885328 -0.67483354 -59.884674
16129040000 -1.1110098 -136.96996 -28.929098 -28.652197 -28.923454 -28.593912 -0.66677815 -60.564735
16138035000 -1.1259503 -137.89928 -28.676022 -28.897749 -28.690447 -28.72135 -0.65098059 -61.245571
16147030000 -1.1370217 -138.85686 -28.461538 -29.13203 -28.473137 -29.05971 -0.6313076 -61.853851
16156025000 -1.1436951 -139.77774 -28.242052 -29.380503 -28.268238 -29.224279 -0.62507129 -62.415054
16165020000 -1.1569937 -140.66571 -28.026966 -29.774099 -28.070366 -29.724844 -0.6187526 -63.008312
16174015000 -1.1763725 -141.59578 -27.837351 -30.167747 -27.860693 -30.061172 -0.60921866 -63.594799
16183010000 -1.1883526 -142.58925 -27.640423 -30.727716 -27.666323 -30.450933 -0.60195559 -64.174698
16192005000 -1.1998852 -143.51932 -27.458107 -31.353045 -27.466883 -31.085529 -0.59663934 -64.826904
16201000000 -1.2164979 -144.45242 -27.284582 -31.906153 -27.283195 -31.716602 -0.58333689 -65.510818
16209995000 -1.229889 -145.42743 -27.118494 -32.489037 -27.130842 -32.334808 -0.56732845 -66.137314
16218990000 -1.2377354 -146.34779 -26.950098 -33.103168 -26.967295 -33.018505 -0.5643248 -66.74836
16227985000 -1.2552398 -147.26347 -26.800905 -33.857529 -26.797375 -33.589096 -0.55929965 -67.369408
16236980000 -1.2782565 -148.2309 -26.646385 -34.529839 -26.643139 -34.316597 -0.54454863 -67.952911
16245975000 -1.2931975 -149.23485 -26.511152 -35.271843 -26.480074 -35.120644 -0.54189444 -68.529686
16254970000 -1.3053551 -150.21539 -26.368561 -36.080769 -26.350212 -35.977173 -0.53969872 -69.20462
16263965000 -1.3232379 -151.19925 -26.240086 -36.792183 -26.222137 -36.7258 -0.53179568 -69.892479
16272960000 -1.3360515 -152.22607 -26.104734 -37.51939 -26.102844 -37.449062 -0.52218956 -70.544678
16281955000 -1.351625 -153.18674 -25.98798 -38.227646 -25.976881 -38.114143 -0.51971877 -71.213478
16290950000 -1.372438 -154.12021 -25.866693 -38.927849 -25.84408 -38.908543 -0.50567657 -71.87722
16299945000 -1.3929156 -155.12521 -25.742767 -39.65472 -25.738079 -39.597027 -0.48983428 -72.454819
16308940000 -1.4067453 -156.1261 -25.60865 -40.485802 -25.607151 -40.272388 -0.48365593 -73.015602
16317935000 -1.4228109 -157.08667 -25.484869 -41.213039 -25.471434 -41.133274 -0.48017177 -73.626404
16326930000 -1.4402387 -158.07767 -25.365986 -42.005894 -25.355522 -41.962505 -0.47307009 -74.242287
16335925000 -1.4543403 -159.08321 -25.258747 -42.748875 -25.250233 -42.628246 -0.47427708 -74.872261
16344920000 -1.4770604 -160.03807 -25.151779 -43.541866 -25.145203 -43.453926 -0.47952589 -75.599892
16353915000 -1.5003632 -161.0202 -25.044941 -44.392323 -25.029451 -44.256428 -0.46898356 -76.373985
16362910000 -1.5234734 -162.06531 -24.945913 -45.177471 -24.921961 -45.08559 -0.45569897 -77.045174
16371905000 -1.5421734 -163.09526 -24.848511 -45.942371 -24.842302 -45.886837 -0.44822243 -77.690498
16380900000 -1.558743 -164.10945 -24.753069 -46.773804 -24.743542 -46.618134 -0.43830317 -78.35746
16389895000 -1.5778654 -165.15132 -24.659361 -47.374805 -24.644476 -47.215778 -0.43159291 -78.950699
16398890000 -1.5885005 -166.16107 -24.555212 -48.167858 -24.531492 -47.920254 -0.43642971 -79.550827
16407885000 -1.6120666 -167.15308 -24.444044 -48.854237 -24.418308 -48.706352 -0.44363368 -80.293106
16416880000 -1.6388019 -168.17177 -24.338751 -49.639366 -24.297922 -49.581974 -0.43713361 -81.076385
16425875000 -1.6617321 -169.22073 -24.237249 -50.431015 -24.210875 -50.458755 -0.43225399 -81.790894
16434870000 -1.6784122 -170.24905 -24.142609 -51.271786 -24.11079 -51.254417 -0.42212403 -82.508774
16443865000 -1.6987479 -171.28113 -24.035362 -52.051178 -24.012455 -52.045139 -0.40748543 -83.209175
16452860000 -1.7156701 -172.33682 -23.949903 -52.980488 -23.923029 -52.899647 -0.39693534 -83.790619
16461855000 -1.7326474 -173.35634 -23.864435 -53.73101 -23.836102 -53.69915 -0.40185863 -84.382912
16470850000 -1.7573082 -174.37488 -23.787855 -54.463627 -23.755135 -54.467049 -0.40811554 -85.066994
16479845000 -1.7822138 -175.39917 -23.685116 -55.124081 -23.664812 -55.199753 -0.40722016 -85.802147
16488840000 -1.8016434 -176.46382 -23.589127 -55.858589 -23.571985 -55.963966 -0.40863368 -86.532021
16497835000 -1.8194401 -177.52824 -23.498871 -56.742218 -23.470673 -56.769119 -0.41098401 -87.328178
16506830000 -1.8397906 -178.61124 -23.405357 -57.561707 -23.3871 -57.583817 -0.39902878 -88.071526
16515825000 -1.8585576 -179.67357 -23.335201 -58.398434 -23.30196 -58.313347 -0.38943517 -88.72802
16524820000 -1.8745053 179.29478 -23.250734 -59.050919 -23.222998 -59.116066 -0.38857874 -89.365211
16533815000 -1.8983355 178.24934 -23.157593 -59.729118 -23.138159 -59.814091 -0.38851419 -90.053009
16542810000 -1.9196656 177.20334 -23.062214 -60.457275 -23.039398 -60.564983 -0.38969201 -90.732407
16551805000 -1.9350592 176.14368 -22.966711 -61.294342 -22.939342 -61.351471 -0.39563563 -91.443642
16560800000 -1.9548978 175.06483 -22.879894 -62.073833 -22.853222 -62.151264 -0.39901912 -92.246765
16569795000 -1.9732878 173.97575 -22.792246 -62.806095 -22.780115 -62.921246 -0.38940319 -93.003006
16578790000 -1.9922957 172.87088 -22.703619 -63.536339 -22.682196 -63.672104 -0.38097656 -93.708588
16587785000 -2.0130022 171.78004 -22.607838 -64.269714 -22.600254 -64.398247 -0.37887797 -94.391449
16596780000 -2.031786 170.67107 -22.514715 -65.009911 -22.495419 -65.17717 -0.37534022 -95.069092
16605775000 -2.052238 169.54242 -22.417482 -65.74231 -22.414509 -65.958542 -0.37862432 -95.728584
16614770000 -2.0692863 168.42717 -22.332029 -66.519333 -22.321779 -66.711548 -0.39263362 -96.429024
16623765000 -2.0856137 167.31322 -22.237259 -67.321915 -22.240454 -67.493202 -0.40495938 -97.263741
16632760000 -2.1030416 166.18398 -22.136808 -68.052673 -22.146526 -68.18914 -0.39892265 -98.10508
16641755000 -2.1204484 165.07761 -22.049412 -68.870644 -22.054783 -69.046516 -0.39816847 -98.871933
16650750000 -2.1429303 163.9552 -21.955917 -69.721558 -21.965212 -69.900421 -0.38870132 -99.622101
16659745000 -2.1620846 162.8326 -21.869417 -70.51519 -21.873823 -70.611732 -0.37773359 -100.29801
16668740000 -2.178365 161.67596 -21.78545 -71.293976 -21.793335 -71.393585 -0.37631005 -100.87351
16677735000 -2.1952243 160.51869 -21.698 -72.032013 -21.702061 -72.156548 -0.39305413 -101.53107
16686730000 -2.2095499 159.36581 -21.596539 -72.772827 -21.603909 -72.917587 -0.40964937 -102.32383
16695725000 -2.2237604 158.20163 -21.503239 -73.550156 -21.509769 -73.753944 -0.41688767 -103.16234
16704720000 -2.2390263 157.05928 -21.401537 -74.362434 -21.421162 -74.539841 -0.41761148 -104.0211
16713715000 -2.255022 155.88744 -21.311205 -75.137642 -21.332687 -75.276649 -0.41367075 -104.88927
16722710000 -2.2738106 154.66823 -21.213547 -75.87117 -21.231415 -76.03315 -0.39741415 -105.65102
16731705000 -2.2944286 153.46417 -21.114449 -76.683128 -21.14086 -76.782318 -0.39254946 -106.28121
16740700000 -2.3124893 152.25771 -21.01334 -77.517365 -21.039639 -77.582504 -0.408564 -106.94761
16749695000 -2.3268905 151.06218 -20.913054 -78.360306 -20.938145 -78.44136 -0.42554763 -107.68951
16758690000 -2.3398862 149.87025 -20.810928 -79.202232 -20.83452 -79.270599 -0.44101173 -108.46922
16767685000 -2.3594372 148.70688 -20.708055 -80.074699 -20.730019 -80.163544 -0.45172068 -109.29438
16776680000 -2.3784752 147.49429 -20.616905 -80.963585 -20.635313 -80.982628 -0.44241107 -110.18011
16785675000 -2.395884 146.24939 -20.523775 -81.698387 -20.543249 -81.765289 -0.42548767 -110.93531
16794670000 -2.4160903 144.94379 -20.420357 -82.459747 -20.442341 -82.597054 -0.41975453 -111.60008
16803665000 -2.436682 143.65108 -20.319176 -83.393036 -20.342735 -83.44252 -0.4311375 -112.28228
16812660000 -2.4553688 142.3851 -20.21627 -84.2687 -20.241095 -84.335381 -0.449606 -112.99021
16821655000 -2.4710793 141.1628 -20.119621 -85.143806 -20.138588 -85.180733 -0.47396007 -113.77068
16830650000 -2.4919384 139.90346 -20.013124 -86.027519 -20.037066 -86.087242 -0.49583048 -114.66759
16839645000 -2.5150576 138.62587 -19.911551 -86.907784 -19.933578 -87.042961 -0.49734396 -115.65231
16848640000 -2.5394814 137.36749 -19.794739 -87.835281 -19.827911 -87.918221 -0.47964731 -116.54092
16857635000 -2.5641809 136.07976 -19.701979 -88.785988 -19.734632 -88.873222 -0.47323373 -117.32565
16866630000 -2.5892799 134.76332 -19.601448 -89.793945 -19.634907 -89.849648 -0.47057599 -118.04462
16875625000 -2.612206 133.50294 -19.509596 -90.759056 -19.543013 -90.766426 -0.48564771 -118.724
16884620000 -2.6352015 132.24377 -19.415262 -91.736122 -19.453186 -91.705772 -0.51522666 -119.42988
16893615000 -2.6646869 130.98112 -19.31535 -92.709152 -19.352345 -92.647766 -0.54903793 -120.3275
16902610000 -2.6919396 129.70564 -19.211863 -93.681068 -19.248676 -93.606361 -0.56158984 -121.33438
16911605000 -2.7227581 128.42497 -19.116846 -94.693008 -19.143869 -94.597427 -0.54981762 -122.29886
16920600000 -2.7523103 127.14281 -19.031357 -95.704979 -19.054125 -95.601723 -0.53713357 -123.17155
16929595000 -2.7812264 125.84304 -18.941582 -96.713898 -18.964592 -96.594475 -0.52224445 -123.93563
16938590000 -2.805928 124.58147 -18.856857 -97.658241 -18.873394 -97.548172 -0.52468628 -124.53571
16947585000 -2.8345695 123.33285 -18.769493 -98.601242 -18.795101 -98.557182 -0.55967212 -125.12582
16956580000 -2.8704982 122.06265 -18.67779 -99.647194 -18.709446 -99.592644 -0.60411185 -125.88612
16965575000 -2.9040854 120.76948 -18.588465 -100.65839 -18.613396 -100.56878 -0.63495147 -126.82995
16974570000 -2.9382937 119.53629 -18.497257 -101.65592 -18.515875 -101.58836 -0.6460675 -127.86835
16983565000 -2.9720781 118.25921 -18.410303 -102.69795 -18.434614 -102.63485 -0.64004183 -128.9175
16992560000 -2.9982941 116.9899 -18.330589 -103.72186 -18.355923 -103.65347 -0.62172037 -129.87965
17001555000 -3.0227087 115.76025 -18.250154 -104.79738 -18.269636 -104.68814 -0.61082011 -130.60187
17010550000 -3.0518639 114.54073 -18.176567 -105.79305 -18.203239 -105.67923 -0.63484031 -131.17178
17019545000 -3.080694 113.28671 -18.094339 -106.77541 -18.12277 -106.68033 -0.67130595 -131.84259
17028540000 -3.1078308 112.05033 -18.00803 -107.74474 -18.033466 -107.62122 -0.71146047 -132.6411
17037535000 -3.1381018 110.81867 -17.918802 -108.74367 -17.940327 -108.57402 -0.73985004 -133.6284
17046530000 -3.1674135 109.57742 -17.828285 -109.81114 -17.845232 -109.60137 -0.74533755 -134.75079
17055525000 -3.1861968 108.34029 -17.743299 -110.89472 -17.754389 -110.67529 -0.72818798 -135.81458
17064520000 -3.2088513 107.15544 -17.670523 -111.95838 -17.679491 -111.77218 -0.71081346 -136.61974
17073515000 -3.2331481 105.95705 -17.609163 -113.01004 -17.609684 -112.81029 -0.71959102 -137.24529
17082510000 -3.254915 104.72949 -17.537605 -113.98908 -17.541374 -113.86532 -0.75109911 -137.84521
17091505000 -3.2774186 103.58142 -17.462826 -114.94832 -17.468174 -114.85091 -0.79674226 -138.55916
17100500000 -3.303488 102.41453 -17.379797 -115.93705 -17.387924 -115.86479 -0.8407411 -139.50121
17109495000 -3.3213613 101.20247 -17.296843 -116.98732 -17.310343 -116.88775 -0.86465842 -140.6723
17118490000 -3.3293219 100.01453 -17.21114 -118.10128 -17.226822 -117.97095 -0.85044914 -141.86775
17127485000 -3.3383629 98.865379 -17.137735 -119.19554 -17.149153 -119.02535 -0.82510316 -142.81943
17136480000 -3.346869 97.653343 -17.077482 -120.2938 -17.083649 -120.09914 -0.81438851 -143.55754
17145475000 -3.3519888 96.45977 -17.022861 -121.24019 -17.025055 -121.13854 -0.82443804 -144.12982
17154470000 -3.3564813 95.300171 -16.952578 -122.16509 -16.9561 -122.07188 -0.86161721 -144.66266
17163465000 -3.3711543 94.060089 -16.872803 -123.09128 -16.885252 -122.96789 -0.91539365 -145.43295
17172460000 -3.3758953 92.801575 -16.788418 -124.1405 -16.807375 -123.94683 -0.95781875 -146.55536
17181455000 -3.3801186 91.574188 -16.706659 -125.20996 -16.726805 -125.00018 -0.96737093 -147.8159
17190450000 -3.3841858 90.36235 -16.647387 -126.241 -16.650738 -126.06232 -0.95296139 -148.97261
17199445000 -3.3775566 89.098198 -16.586735 -127.28619 -16.591288 -127.09599 -0.93409997 -149.92644
17208440000 -3.3692267 87.867188 -16.514412 -128.19115 -16.522913 -128.04344 -0.92070925 -150.59091
17217435000 -3.3664975 86.63842 -16.447245 -129.06094 -16.453329 -128.91051 -0.94231611 -151.10815
17226430000 -3.3678169 85.34626 -16.367298 -129.90884 -16.373068 -129.76903 -0.99138868 -151.74097
17235425000 -3.3619168 84.061768 -16.264898 -130.87636 -16.276176 -130.73634 -1.0422299 -152.73126
17244420000 -3.3528826 82.75029 -16.169508 -131.95271 -16.178802 -131.76585 -1.0721697 -153.9292
17253415000 -3.3552263 81.461235 -16.087719 -133.06209 -16.095697 -132.88812 -1.0753404 -155.2263
17262410000 -3.3424613 80.131989 -16.014606 -134.15756 -16.021324 -133.97014 -1.0569462 -156.39565
17271405000 -3.3322425 78.842392 -15.943601 -135.1904 -15.945672 -134.99327 -1.031919 -157.26286
17280400000 -3.3272738 77.556396 -15.867855 -136.13858 -15.873398 -135.9274 -1.0338392 -157.84286
17289395000 -3.3202496 76.217392 -15.783067 -137.06882 -15.786429 -136.88313 -1.0687803 -158.44432
17298390000 -3.3117106 74.866104 -15.689453 -138.10254 -15.690879 -137.91533 -1.1178776 -159.29054
17307385000 -3.3064015 73.565681 -15.588501 -139.15616 -15.590236 -139.00639 -1.1674238 -160.38322
17316380000 -3.3014464 72.187561 -15.49601 -140.26393 -15.495539 -140.13326 -1.1960665 -161.72348
17325375000 -3.2935982 70.806221 -15.413177 -141.43806 -15.418308 -141.29018 -1.1946852 -163.07835
17334370000 -3.2765415 69.439629 -15.337951 -142.5764 -15.341095 -142.41887 -1.1745867 -164.19543
17343365000 -3.2657378 68.04567 -15.268621 -143.63759 -15.268713 -143.4852 -1.1641854 -164.99471
17352360000 -3.2569268 66.630997 -15.193887 -144.64745 -15.192409 -144.54796 -1.1800001 -165.66504
17361355000 -3.2482512 65.230659 -15.106404 -145.7094 -15.107947 -145.61862 -1.2174232 -166.39552
17370350000 -3.2499447 63.879208 -15.016513 -146.82318 -15.020158 -146.74295 -1.2705622 -167.37137
17379345000 -3.2529254 62.476166 -14.926538 -148.01537 -14.934703 -147.88312 -1.3178489 -168.63048
17388340000 -3.2459314 61.022446 -14.842592 -149.24229 -14.857189 -149.11128 -1.3359905 -170.04276
17397335000 -3.2430282 59.573471 -14.774283 -150.4091 -14.787847 -150.26784 -1.3248194 -171.27711
17406330000 -3.2403882 58.109303 -14.704323 -151.51288 -14.72076 -151.37781 -1.3146713 -172.226
17415325000 -3.2358663 56.650379 -14.639809 -152.61542 -14.653694 -152.45297 -1.3146579 -172.99117
17424320000 -3.2305913 55.234512 -14.565501 -153.6655 -14.570238 -153.50752 -1.3496879 -173.65984
17433315000 -3.2362115 53.836449 -14.48231 -154.78415 -14.488734 -154.59271 -1.4102476 -174.51743
17442310000 -3.2452345 52.40691 -14.401378 -155.95183 -14.407592 -155.78586 -1.4782183 -175.73848
17451305000 -3.2482386 50.966522 -14.318892 -157.15643 -14.324051 -157.00996 -1.5249165 -177.21628
17460300000 -3.2516031 49.539009 -14.246408 -158.38458 -14.252488 -158.19627 -1.5375718 -178.70313
17469295000 -3.2543416 48.079308 -14.177441 -159.5222 -14.18451 -159.33167 -1.531213 -179.9046
17478290000 -3.2536075 46.641888 -14.103971 -160.66702 -14.107548 -160.4017 -1.5215496 179.15619
17487285000 -3.2602191 45.269882 -14.028675 -161.73599 -14.027296 -161.51195 -1.5340825 178.49329
17496280000 -3.2728269 43.919872 -13.952029 -162.88551 -13.94313 -162.6691 -1.5841119 177.75803
17505275000 -3.2826726 42.511082 -13.877379 -164.07368 -13.87002 -163.9003 -1.6575407 176.74785
17514270000 -3.290591 41.103249 -13.792795 -165.28108 -13.792038 -165.12918 -1.7263393 175.45114
17523265000 -3.304744 39.679382 -13.71818 -166.52896 -13.715999 -166.38928 -1.7687825 174.0251
17532260000 -3.3108106 38.232555 -13.653271 -167.7673 -13.646938 -167.60031 -1.7822047 172.66766
17541255000 -3.3084238 36.797749 -13.585979 -168.95161 -13.576206 -168.81268 -1.7774431 171.55429
17550250000 -3.3136439 35.417595 -13.520514 -170.0986 -13.508273 -169.93004 -1.7844115 170.74178
17559245000 -3.3272185 34.001938 -13.446975 -171.21683 -13.442637 -171.06256 -1.8239354 169.99591
17568240000 -3.3365555 32.596321 -13.375893 -172.39409 -13.373761 -172.24901 -1.8904666 169.05948
17577235000 -3.3473246 31.212868 -13.301235 -173.65985 -13.297243 -173.47888 -1.9677712 167.82442
17586230000 -3.359694 29.822788 -13.231079 -174.94287 -13.221133 -174.74298 -2.0313077 166.34985
17595225000 -3.3649652 28.423733 -13.16576 -176.23886 -13.152016 -176.04483 -2.062393 164.83014
17604220000 -3.3702104 27.064611 -13.101147 -177.46059 -13.087932 -177.29958 -2.0614896 163.55498
17613215000 -3.3830087 25.741344 -13.033934 -178.6226 -13.014334 -178.45557 -2.0583777 162.61728
17622210000 -3.3977373 24.387482 -12.967454 -179.77545 -12.948312 -179.65504 -2.0805972 161.86888
17631205000 -3.4083562 23.023481 -12.899567 178.99248 -12.883992 179.11957 -2.1387708 161.07866
17640200000 -3.4182363 21.693361 -12.832955 177.74974 -12.816732 177.87057 -2.2263224 160.03482
17649195000 -3.4269547 20.309942 -12.76539 176.49832 -12.747706 176.59486 -2.3165693 158.68742
17658190000 -3.4306488 18.920732 -12.70021 175.19405 -12.685104 175.27379 -2.3808072 157.08957
17667185000 -3.4350581 17.591217 -12.6402 173.90549 -12.62814 173.96747 -2.4065657 155.62341
17676180000 -3.4412117 16.303997 -12.579724 172.65244 -12.572297 172.72737 -2.4067142 154.43111
17685175000 -3.438709 14.946059 -12.525352 171.44412 -12.513906 171.52495 -2.412514 153.57362
17694170000 -3.4441941 13.592563 -12.462359 170.25879 -12.452124 170.36224 -2.4507451 152.86569
17703165000 -3.4545186 12.233657 -12.396421 169.04555 -12.38678 169.13544 -2.5262537 152.03624
17712160000 -3.4660473 10.831871 -12.329792 167.78952 -12.320628 167.87617 -2.6251094 150.90311
17721155000 -3.4748282 9.4281206 -12.271455 166.45271 -12.260097 166.59363 -2.7126708 149.46645
17730150000 -3.4831853 8.0663109 -12.212369 165.15109 -12.203294 165.27837 -2.7617822 147.94893
17739145000 -3.4891055 6.7091756 -12.163177 163.90178 -12.147247 164.03642 -2.7751584 146.57271
17748140000 -3.4925377 5.3773031 -12.102913 162.7397 -12.083834 162.80873 -2.7829754 145.51099
17757135000 -3.496011 4.0973206 -12.03407 161.53653 -12.01929 161.57751 -2.8003113 144.71361
17766130000 -3.5080042 2.7849433 -11.973861 160.32434 -11.955657 160.36383 -2.8652456 143.91713
17775125000 -3.5163198 1.4242072 -11.906845 159.09402 -11.898913 159.1438 -2.9666548 142.90616
17784120000 -3.5174823 0.049100306 -11.84542 157.76918 -11.838418 157.83752 -3.0701067 141.60353
17793115000 -3.5248494 -1.3195153 -11.787631 156.43398 -11.77759 156.51532 -3.1451707 140.07243
17802110000 -3.53195 -2.7246351 -11.731697 155.15311 -11.71504 155.20638 -3.1761985 138.58405
17811105000 -3.5350282 -4.0901618 -11.674864 153.82275 -11.657797 153.89662 -3.1811292 137.30797
17820100000 -3.5385165 -5.4069061 -11.612262 152.59538 -11.597088 152.64575 -3.1909842 136.3511
17829095000 -3.5459976 -6.740849 -11.551611 151.39174 -11.533424 151.42139 -3.2372963 135.58818
17838090000 -3.5481699 -8.0746698 -11.4882 150.14029 -11.475849 150.15442 -3.3227415 134.76147
17847085000 -3.5518403 -9.452445 -11.427128 148.8362 -11.416066 148.87447 -3.4308541 133.70538
17856080000 -3.5578542 -10.796277 -11.369339 147.52496 -11.356105 147.53996 -3.5239031 132.30699
17865075000 -3.5592721 -12.195465 -11.315229 146.21515 -11.300263 146.18301 -3.5860317 130.74835
17874070000 -3.5569324 -13.579657 -11.253838 144.87523 -11.24419 144.86533 -3.6045735 129.3038
17883065000 -3.5552688 -14.945794 -11.19187 143.59789 -11.186202 143.56978 -3.6095281 128.12619
17892060000 -3.5601134 -16.357729 -11.125971 142.28539 -11.122163 142.29169 -3.6298385 127.23325
17901055000 -3.5649168 -17.775669 -11.069857 140.96646 -11.063706 141.00099 -3.6821587 126.39758
17910050000 -3.569423 -19.180145 -11.014289 139.65862 -11.00755 139.64371 -3.7764728 125.43361
17919045000 -3.5769334 -20.627285 -10.958831 138.3037 -10.962206 138.30795 -3.8882244 124.16801
17928040000 -3.5815187 -22.103178 -10.9041 136.94231 -10.910311 136.97298 -3.9809 122.6873
17937035000 -3.5819492 -23.560871 -10.854168 135.5583 -10.857038 135.63289 -4.0389948 121.16009
17946030000 -3.5817506 -25.007013 -10.799047 134.22655 -10.796768 134.36133 -4.0590453 119.80819
17955025000 -3.5822616 -26.429853 -10.733076 132.94975 -10.727288 133.06084 -4.0757961 118.66985
17964020000 -3.5831406 -27.839085 -10.676109 131.63666 -10.662463 131.76132 -4.1223731 117.79593
17973015000 -3.5864654 -29.268997 -10.616433 130.33817 -10.601971 130.4373 -4.2034798 116.98624
17982010000 -3.5925498 -30.736572 -10.555279 128.99574 -10.5414 129.08508 -4.3069396 115.92727
17991005000 -3.594738 -32.231876 -10.504237 127.6386 -10.486473 127.70785 -4.4139285 114.57792
18000000000 -3.5961974 -33.754883 -10.446978 126.31023 -10.430627 126.35276 -4.4990816 113.10634
