! hatab_megtron7_step30_2p0mm: multiline TRL calibrated (TUGMultilineTRL, scikit-rf 2.1.0)
! raw data ZiadHatab/verification-multiline-trl-calibration @ 021e735, mean of the repeated sweeps
! reference impedance: characteristic impedance of the 94 um 50 Ohm line,
! NOT 50 Ohm; the R value below is a placeholder required by the format
# Hz S RI R 50
1000000000.000000 -3.800502201e-03 -4.150206512e-02 +9.905364607e-01 -1.132696322e-01 +9.908807556e-01 -1.129176838e-01 -5.821451049e-03 -4.344957583e-02
1500000000.000000 -8.947460686e-03 -6.339704033e-02 +9.811902187e-01 -1.681594075e-01 +9.809988806e-01 -1.677062559e-01 -1.284739494e-02 -6.136053670e-02
2000000000.000000 -1.824441223e-02 -8.365535402e-02 +9.677611092e-01 -2.221314078e-01 +9.679347753e-01 -2.208078378e-01 -2.315121419e-02 -8.005347440e-02
2500000000.000000 -2.602596212e-02 -9.900796164e-02 +9.526364477e-01 -2.754246498e-01 +9.521809888e-01 -2.754126370e-01 -3.545547000e-02 -9.887344923e-02
3000000000.000000 -3.426386707e-02 -1.160104380e-01 +9.333794227e-01 -3.262936160e-01 +9.333702446e-01 -3.267181727e-01 -4.871811299e-02 -1.160963372e-01
3500000000.000000 -4.584565078e-02 -1.347754896e-01 +9.110262712e-01 -3.760656555e-01 +9.111777702e-01 -3.763422624e-01 -6.476380403e-02 -1.285385211e-01
4000000000.000000 -6.052285024e-02 -1.503420324e-01 +8.863224752e-01 -4.236454989e-01 +8.857553373e-01 -4.236750616e-01 -8.198941033e-02 -1.388759870e-01
4500000000.000000 -7.573866220e-02 -1.613695635e-01 +8.587613024e-01 -4.690168815e-01 +8.589215316e-01 -4.688882114e-01 -1.016988400e-01 -1.510364237e-01
5000000000.000000 -8.948186745e-02 -1.722100152e-01 +8.296288135e-01 -5.121549654e-01 +8.293297784e-01 -5.118105655e-01 -1.200322457e-01 -1.590773257e-01
5500000000.000000 -1.050615803e-01 -1.849532877e-01 +7.977001441e-01 -5.548425888e-01 +7.977964589e-01 -5.540116277e-01 -1.395300747e-01 -1.630226732e-01
6000000000.000000 -1.234251710e-01 -1.941690270e-01 +7.642392642e-01 -5.934408301e-01 +7.643121167e-01 -5.937913766e-01 -1.593720437e-01 -1.655714157e-01
6500000000.000000 -1.438211668e-01 -2.011202100e-01 +7.283511675e-01 -6.291123116e-01 +7.287457295e-01 -6.291495799e-01 -1.828110515e-01 -1.680899919e-01
7000000000.000000 -1.588632260e-01 -2.018734097e-01 +6.917184386e-01 -6.632199537e-01 +6.914703808e-01 -6.640235997e-01 -2.021241491e-01 -1.662895148e-01
7500000000.000000 -1.778376971e-01 -2.068682283e-01 +6.532814284e-01 -6.955777412e-01 +6.524501643e-01 -6.946994096e-01 -2.227715120e-01 -1.646579969e-01
8000000000.000000 -1.971684421e-01 -2.095073295e-01 +6.140792707e-01 -7.251440146e-01 +6.142599359e-01 -7.246507103e-01 -2.400976484e-01 -1.585307625e-01
8500000000.000000 -2.188774804e-01 -2.070761533e-01 +5.743014229e-01 -7.520599374e-01 +5.740539941e-01 -7.512127467e-01 -2.586234425e-01 -1.519510109e-01
9000000000.000000 -2.350873465e-01 -1.991545466e-01 +5.336428669e-01 -7.770307134e-01 +5.335916824e-01 -7.768087928e-01 -2.784118639e-01 -1.449926235e-01
9500000000.000000 -2.534314268e-01 -1.945138604e-01 +4.917681084e-01 -7.991488500e-01 +4.918712512e-01 -7.985000315e-01 -2.942861910e-01 -1.364868022e-01
10000000000.000000 -2.727072057e-01 -1.902291884e-01 +4.486162395e-01 -8.198865863e-01 +4.492356262e-01 -8.201761147e-01 -3.098467935e-01 -1.274358087e-01
10500000000.000000 -2.938661182e-01 -1.810604880e-01 +4.057420522e-01 -8.370942355e-01 +4.059319311e-01 -8.369181476e-01 -3.250914179e-01 -1.174700117e-01
11000000000.000000 -3.093145626e-01 -1.644436886e-01 +3.613770036e-01 -8.531104228e-01 +3.618564248e-01 -8.521065145e-01 -3.390334201e-01 -1.053673263e-01
11500000000.000000 -3.261723327e-01 -1.546047192e-01 +3.190940771e-01 -8.651732396e-01 +3.188396861e-01 -8.652194797e-01 -3.506093734e-01 -9.212791896e-02
12000000000.000000 -3.417210484e-01 -1.393476970e-01 +2.747263100e-01 -8.771123967e-01 +2.751351460e-01 -8.774580620e-01 -3.635138735e-01 -8.094402099e-02
12500000000.000000 -3.565495585e-01 -1.197608441e-01 +2.301661146e-01 -8.871514341e-01 +2.306511374e-01 -8.869428655e-01 -3.731621382e-01 -6.865416516e-02
13000000000.000000 -3.714048012e-01 -9.684233250e-02 +1.871132112e-01 -8.936470776e-01 +1.874764954e-01 -8.936004629e-01 -3.814027098e-01 -5.462918984e-02
13500000000.000000 -3.827155810e-01 -7.757768440e-02 +1.424627733e-01 -8.967319379e-01 +1.429186661e-01 -8.957684816e-01 -3.901792975e-01 -3.999279921e-02
14000000000.000000 -3.898676552e-01 -5.892613405e-02 +9.748038167e-02 -9.010703881e-01 +9.782107729e-02 -9.003851786e-01 -3.980508998e-01 -2.677714924e-02
14500000000.000000 -3.997658316e-01 -3.493905590e-02 +5.332288657e-02 -9.024482671e-01 +5.375561409e-02 -9.021902001e-01 -4.050995220e-01 -1.356738009e-02
15000000000.000000 -4.090126373e-01 -8.255750895e-03 +1.049266439e-02 -9.005346641e-01 +1.087256735e-02 -8.996077233e-01 -4.151287112e-01 +2.541962399e-03
15500000000.000000 -4.121643100e-01 +1.849310481e-02 -3.325804279e-02 -8.964674620e-01 -3.293004472e-02 -8.955563190e-01 -4.164265964e-01 +1.818046003e-02
16000000000.000000 -4.118885304e-01 +4.304075703e-02 -7.572902334e-02 -8.910607129e-01 -7.597689405e-02 -8.906380428e-01 -4.191907570e-01 +3.006527742e-02
16500000000.000000 -4.184578937e-01 +6.531934256e-02 -1.180548884e-01 -8.862732362e-01 -1.182226517e-01 -8.851257322e-01 -4.242901456e-01 +4.443623033e-02
17000000000.000000 -4.199151568e-01 +9.487559224e-02 -1.612192733e-01 -8.763888907e-01 -1.605862512e-01 -8.739577599e-01 -4.271845666e-01 +6.421728102e-02
17500000000.000000 -4.126875881e-01 +1.237580898e-01 -2.029846768e-01 -8.606438486e-01 -2.038099914e-01 -8.596018996e-01 -4.274282513e-01 +7.835922428e-02
18000000000.000000 -4.047537225e-01 +1.519789848e-01 -2.436909670e-01 -8.542116311e-01 -2.434274632e-01 -8.529673014e-01 -4.268896568e-01 +9.174410759e-02
18500000000.000000 -4.005485181e-01 +1.695279528e-01 -2.829219878e-01 -8.417065915e-01 -2.820898884e-01 -8.410467663e-01 -4.302670904e-01 +1.082780745e-01
19000000000.000000 -3.962593646e-01 +1.921066698e-01 -3.224457716e-01 -8.224070943e-01 -3.223126396e-01 -8.222465750e-01 -4.257266875e-01 +1.275632564e-01
19500000000.000000 -3.857550346e-01 +2.227060615e-01 -3.610775991e-01 -8.062502447e-01 -3.610249155e-01 -8.053249740e-01 -4.194101738e-01 +1.422481174e-01
20000000000.000000 -3.675529808e-01 +2.459729547e-01 -3.988746264e-01 -7.879876150e-01 -3.975286779e-01 -7.860318562e-01 -4.171797806e-01 +1.560372337e-01
20500000000.000000 -3.527207499e-01 +2.604968753e-01 -4.368488267e-01 -7.679998717e-01 -4.357668655e-01 -7.661417846e-01 -4.149652936e-01 +1.740714579e-01
21000000000.000000 -3.475567764e-01 +2.791457882e-01 -4.705946123e-01 -7.457014661e-01 -4.708279667e-01 -7.442733969e-01 -4.104068888e-01 +1.952683474e-01
21500000000.000000 -3.272072243e-01 +3.033265735e-01 -5.077470046e-01 -7.211090455e-01 -5.059744538e-01 -7.205850967e-01 -3.937022718e-01 +2.080455486e-01
22000000000.000000 -3.022188361e-01 +3.173575574e-01 -5.384918982e-01 -6.968605221e-01 -5.383201822e-01 -6.965654364e-01 -3.902575183e-01 +2.241465213e-01
22500000000.000000 -2.910643004e-01 +3.258700533e-01 -5.701537354e-01 -6.695529403e-01 -5.697352608e-01 -6.693269815e-01 -3.813060758e-01 +2.372463828e-01
23000000000.000000 -2.819474170e-01 +3.425792426e-01 -6.044724194e-01 -6.400453720e-01 -6.038254453e-01 -6.401989016e-01 -3.652148536e-01 +2.569917391e-01
23500000000.000000 -2.625113349e-01 +3.615899669e-01 -6.326325369e-01 -6.110851596e-01 -6.331642738e-01 -6.110696842e-01 -3.487888322e-01 +2.731758111e-01
24000000000.000000 -2.352794802e-01 +3.671904357e-01 -6.594672235e-01 -5.806920490e-01 -6.602404065e-01 -5.805877774e-01 -3.384600770e-01 +2.881278325e-01
24500000000.000000 -2.198411789e-01 +3.714952088e-01 -6.883912006e-01 -5.478437893e-01 -6.878784721e-01 -5.479402775e-01 -3.247716802e-01 +3.065508797e-01
25000000000.000000 -2.111440699e-01 +3.795337925e-01 -7.159869646e-01 -5.143550917e-01 -7.155294820e-01 -5.138839029e-01 -3.041443082e-01 +3.233867471e-01
25500000000.000000 -1.931841713e-01 +3.959698311e-01 -7.406826122e-01 -4.793280278e-01 -7.398829475e-01 -4.797723991e-01 -2.822613217e-01 +3.343233243e-01
26000000000.000000 -1.690294141e-01 +4.039371390e-01 -7.617227973e-01 -4.457135769e-01 -7.608827009e-01 -4.453779691e-01 -2.674671888e-01 +3.491447315e-01
26500000000.000000 -1.502235821e-01 +4.006394522e-01 -7.813865341e-01 -4.093682182e-01 -7.811923093e-01 -4.093242844e-01 -2.498113577e-01 +3.620332074e-01
27000000000.000000 -1.434824019e-01 +4.071645966e-01 -8.017601712e-01 -3.684812842e-01 -8.013365065e-01 -3.679362730e-01 -2.248157287e-01 +3.731959179e-01
27500000000.000000 -1.263535294e-01 +4.152647073e-01 -8.203666191e-01 -3.312634722e-01 -8.197888554e-01 -3.306425384e-01 -1.993102646e-01 +3.844529647e-01
28000000000.000000 -1.033442327e-01 +4.232508820e-01 -8.331858765e-01 -2.912251805e-01 -8.330480494e-01 -2.910206875e-01 -1.810541737e-01 +3.915715864e-01
28500000000.000000 -7.892008742e-02 +4.131691395e-01 -8.480562083e-01 -2.539399703e-01 -8.476243192e-01 -2.534086391e-01 -1.598034377e-01 +4.014147526e-01
29000000000.000000 -6.916132474e-02 +4.169496430e-01 -8.616382518e-01 -2.091454865e-01 -8.611333938e-01 -2.103800485e-01 -1.362774526e-01 +4.072885078e-01
29500000000.000000 -5.621725561e-02 +4.229758855e-01 -8.683289417e-01 -1.695983112e-01 -8.678898492e-01 -1.692287930e-01 -1.104339358e-01 +4.109347927e-01
30000000000.000000 -2.985282841e-02 +4.221826009e-01 -8.794448571e-01 -1.274345070e-01 -8.785493984e-01 -1.283098918e-01 -8.757457595e-02 +4.102004113e-01
30500000000.000000 -1.162264690e-02 +4.163339894e-01 -8.885569646e-01 -6.448613716e-02 -8.864287225e-01 -8.259374137e-02 -6.080719545e-02 +4.113774560e-01
31000000000.000000 +5.040701258e-03 +4.122908662e-01 -8.920442817e-01 -2.265400783e-02 -8.903790088e-01 -4.044268470e-02 -3.792276383e-02 +4.101793128e-01
31500000000.000000 +2.111956161e-02 +4.067936481e-01 -8.943991384e-01 +2.128527683e-02 -8.936719104e-01 +2.020155034e-03 -1.505197675e-02 +4.062759236e-01
32000000000.000000 +3.810244168e-02 +4.000692412e-01 -8.947887355e-01 +6.388761538e-02 -8.952782503e-01 +4.531718253e-02 +6.283917969e-03 +4.010734883e-01
32500000000.000000 +5.169397437e-02 +3.919945691e-01 -8.933658993e-01 +1.087227033e-01 -8.941059230e-01 +8.915602069e-02 +2.872233461e-02 +3.944320164e-01
33000000000.000000 +6.698107002e-02 +3.837476600e-01 -8.894530747e-01 +1.513708544e-01 -8.913830977e-01 +1.331109591e-01 +4.947993308e-02 +3.865099393e-01
33500000000.000000 +8.283259480e-02 +3.734357144e-01 -8.835036769e-01 +1.966829355e-01 -8.872472159e-01 +1.761052788e-01 +6.810502541e-02 +3.764258466e-01
34000000000.000000 +9.383411282e-02 +3.637320124e-01 -8.747539124e-01 +2.399904893e-01 -8.799709964e-01 +2.199812467e-01 +8.925665209e-02 +3.653410806e-01
34500000000.000000 +1.078875997e-01 +3.523779442e-01 -8.652728048e-01 +2.828719849e-01 -8.703523167e-01 +2.623978129e-01 +1.053824623e-01 +3.528872972e-01
35000000000.000000 +1.197800277e-01 +3.395394325e-01 -8.523707314e-01 +3.251966771e-01 -8.598287600e-01 +3.045370447e-01 +1.207115417e-01 +3.401357753e-01
35500000000.000000 +1.317555484e-01 +3.251810904e-01 -8.392617336e-01 +3.692485279e-01 -8.467271454e-01 +3.478097809e-01 +1.343257065e-01 +3.244825566e-01
36000000000.000000 +1.429433882e-01 +3.088187173e-01 -8.230496196e-01 +4.113592569e-01 -8.314922046e-01 +3.914955326e-01 +1.464059810e-01 +3.088991957e-01
36500000000.000000 +1.519496183e-01 +2.930672962e-01 -8.043157115e-01 +4.537713649e-01 -8.140614780e-01 +4.343548914e-01 +1.561857225e-01 +2.921597451e-01
37000000000.000000 +1.595521472e-01 +2.743446604e-01 -7.835988015e-01 +4.950256124e-01 -7.951272018e-01 +4.755887827e-01 +1.645876964e-01 +2.753730835e-01
37500000000.000000 +1.658259166e-01 +2.567995362e-01 -7.602947764e-01 +5.365690718e-01 -7.744685261e-01 +5.157755680e-01 +1.721500658e-01 +2.567254973e-01
38000000000.000000 +1.720837208e-01 +2.382876189e-01 -7.356674783e-01 +5.765086148e-01 -7.502781316e-01 +5.562137525e-01 +1.767323452e-01 +2.384105768e-01
38500000000.000000 +1.753996238e-01 +2.176259382e-01 -7.079261961e-01 +6.154846553e-01 -7.225357994e-01 +5.973979347e-01 +1.794394251e-01 +2.204687237e-01
39000000000.000000 +1.782136373e-01 +1.979895581e-01 -6.780530535e-01 +6.544995252e-01 -6.946385247e-01 +6.361382335e-01 +1.782056922e-01 +2.019636021e-01
39500000000.000000 +1.771764955e-01 +1.773233852e-01 -6.449729645e-01 +6.914129602e-01 -6.618245243e-01 +6.733493273e-01 +1.758304101e-01 +1.823734560e-01
40000000000.000000 +1.751519900e-01 +1.585534604e-01 -6.098496584e-01 +7.268232541e-01 -6.287178700e-01 +7.091809380e-01 +1.734763227e-01 +1.648625808e-01
40500000000.000000 +1.708655780e-01 +1.360783667e-01 -5.731800528e-01 +7.604214292e-01 -5.913754113e-01 +7.447172371e-01 +1.676513001e-01 +1.470106895e-01
41000000000.000000 +1.635667051e-01 +1.162357019e-01 -5.342384095e-01 +7.924168605e-01 -5.536752785e-01 +7.786214956e-01 +1.605361178e-01 +1.301525973e-01
41500000000.000000 +1.569709157e-01 +9.677130660e-02 -4.903642656e-01 +8.238707610e-01 -5.125758722e-01 +8.083191537e-01 +1.518399921e-01 +1.136358230e-01
42000000000.000000 +1.456355692e-01 +7.847201910e-02 -4.510708805e-01 +8.489104347e-01 -4.703420216e-01 +8.377227546e-01 +1.396383377e-01 +9.855737660e-02
42500000000.000000 +1.324008953e-01 +6.007403040e-02 -4.050020229e-01 +8.761096077e-01 -4.245711121e-01 +8.648710118e-01 +1.271407972e-01 +8.451104117e-02
43000000000.000000 +1.185288282e-01 +4.377455156e-02 -3.546522480e-01 +8.995227698e-01 -3.802197751e-01 +8.891044304e-01 +1.122471066e-01 +7.056217215e-02
43500000000.000000 +1.033769949e-01 +3.020336290e-02 -3.072101415e-01 +9.198069144e-01 -3.305044461e-01 +9.107719444e-01 +9.706329209e-02 +6.012639212e-02
44000000000.000000 +8.551361018e-02 +1.784515561e-02 -2.558667599e-01 +9.372638957e-01 -2.803912980e-01 +9.283981818e-01 +8.119095002e-02 +5.075124382e-02
44500000000.000000 +6.634911282e-02 +6.759022792e-03 -2.020041409e-01 +9.504795028e-01 -2.285967612e-01 +9.442431663e-01 +6.350752518e-02 +4.273058358e-02
45000000000.000000 +4.696945124e-02 +3.446937456e-05 -1.509725024e-01 +9.612065634e-01 -1.763180299e-01 +9.559966107e-01 +4.379343678e-02 +3.638766926e-02
45500000000.000000 +2.660093542e-02 -5.890285626e-03 -9.570802272e-02 +9.682628266e-01 -1.240452108e-01 +9.649142249e-01 +2.469469052e-02 +3.107921327e-02
46000000000.000000 +5.788696080e-03 -8.658216950e-03 -4.134495246e-02 +9.732479481e-01 -6.853652080e-02 +9.690908983e-01 +4.822403170e-03 +2.904440056e-02
46500000000.000000 -1.453097737e-02 -8.404668180e-03 +1.195213892e-02 +9.730334918e-01 -1.464688674e-02 +9.726282031e-01 -1.549697903e-02 +2.713912398e-02
47000000000.000000 -3.481281122e-02 -4.089971321e-03 +6.685494467e-02 +9.703423640e-01 +3.801764424e-02 +9.715845297e-01 -3.537891464e-02 +2.771796926e-02
47500000000.000000 -5.380534568e-02 +1.026124234e-03 +1.213460560e-01 +9.641505015e-01 +9.324110685e-02 +9.668840069e-01 -5.447668990e-02 +2.993243925e-02
48000000000.000000 -7.318029702e-02 +8.664008214e-03 +1.752900463e-01 +9.538990250e-01 +1.465946523e-01 +9.582490489e-01 -7.249959380e-02 +3.414457197e-02
48500000000.000000 -9.006755969e-02 +1.986101240e-02 +2.278551137e-01 +9.402133717e-01 +1.981266980e-01 +9.470676408e-01 -9.082412671e-02 +4.010197544e-02
49000000000.000000 -1.064333422e-01 +3.329819726e-02 +2.788909233e-01 +9.260722161e-01 +2.514621218e-01 +9.321131020e-01 -1.078736381e-01 +4.780737113e-02
49500000000.000000 -1.213826801e-01 +4.830596410e-02 +3.273786121e-01 +9.067484033e-01 +2.984391049e-01 +9.151339398e-01 -1.248639172e-01 +5.450540003e-02
50000000000.000000 -1.327859112e-01 +6.538200540e-02 +3.774667145e-01 +8.838408038e-01 +3.492847773e-01 +8.936225721e-01 -1.400708311e-01 +6.415449178e-02
50500000000.000000 -1.437790279e-01 +8.306210942e-02 +4.245011089e-01 +8.569928654e-01 +3.957094807e-01 +8.700210617e-01 -1.541332850e-01 +7.491471636e-02
51000000000.000000 -1.505999993e-01 +1.038513965e-01 +4.686206530e-01 +8.307162164e-01 +4.406342864e-01 +8.454491773e-01 -1.668648451e-01 +8.642237030e-02
51500000000.000000 -1.560877752e-01 +1.218076686e-01 +5.114294907e-01 +8.018478104e-01 +4.842804300e-01 +8.161415359e-01 -1.767324728e-01 +1.002327206e-01
52000000000.000000 -1.585575715e-01 +1.457854148e-01 +5.513735625e-01 +7.703822831e-01 +5.267254781e-01 +7.864326789e-01 -1.870461277e-01 +1.147302054e-01
52500000000.000000 -1.589550112e-01 +1.660651200e-01 +5.913146808e-01 +7.350638685e-01 +5.643881259e-01 +7.549539235e-01 -1.953206200e-01 +1.306702843e-01
53000000000.000000 -1.585561882e-01 +1.867438238e-01 +6.238135144e-01 +7.021634693e-01 +6.021416182e-01 +7.204584002e-01 -2.023400588e-01 +1.456053828e-01
53500000000.000000 -1.545549618e-01 +2.073511845e-01 +6.581077617e-01 +6.652558591e-01 +6.357986751e-01 +6.863132219e-01 -2.073876797e-01 +1.613802478e-01
54000000000.000000 -1.488348075e-01 +2.267114477e-01 +6.909729974e-01 +6.260811472e-01 +6.669836082e-01 +6.500222762e-01 -2.103460673e-01 +1.776523897e-01
54500000000.000000 -1.446346230e-01 +2.457697994e-01 +7.153713787e-01 +5.931922274e-01 +6.978076598e-01 +6.116055796e-01 -2.112619728e-01 +1.951890004e-01
55000000000.000000 -1.314827195e-01 +2.650195637e-01 +7.477088943e-01 +5.433691460e-01 +7.264199893e-01 +5.713131317e-01 -2.110966597e-01 +2.133417798e-01
55500000000.000000 -1.242588785e-01 +2.805227119e-01 +7.677183891e-01 +5.102414368e-01 +7.509531624e-01 +5.330182835e-01 -2.078068491e-01 +2.304117181e-01
56000000000.000000 -1.112639219e-01 +3.009347343e-01 +7.918059457e-01 +4.643948109e-01 +7.744867427e-01 +4.909510575e-01 -2.054317392e-01 +2.482025857e-01
56500000000.000000 -1.008723893e-01 +3.144410217e-01 +8.090816672e-01 +4.231167259e-01 +7.938557182e-01 +4.503715624e-01 -1.992153373e-01 +2.660356443e-01
57000000000.000000 -8.515293415e-02 +3.313923867e-01 +8.285542811e-01 +3.744258904e-01 +8.128524613e-01 +4.056988549e-01 -1.927381871e-01 +2.850259853e-01
57500000000.000000 -6.849386738e-02 +3.428123010e-01 +8.428303154e-01 +3.319128890e-01 +8.269053279e-01 +3.653620579e-01 -1.879441444e-01 +2.997508274e-01
58000000000.000000 -5.756419905e-02 +3.570142900e-01 +8.525313828e-01 +2.944522022e-01 +8.419025977e-01 +3.218943147e-01 -1.727299033e-01 +3.171620100e-01
58500000000.000000 -3.982942415e-02 +3.704904262e-01 +8.630478924e-01 +2.527866897e-01 +8.538487587e-01 +2.780818878e-01 -1.633563511e-01 +3.322126139e-01
59000000000.000000 -2.244081436e-02 +3.805716560e-01 +8.708366427e-01 +2.093257869e-01 +8.646927168e-01 +2.358723150e-01 -1.488362723e-01 +3.464372132e-01
59500000000.000000 -1.504496825e-03 +3.924279165e-01 +8.783574632e-01 +1.577099576e-01 +8.718592516e-01 +1.918953754e-01 -1.399874816e-01 +3.621869216e-01
60000000000.000000 +1.833192973e-02 +3.939965339e-01 +8.804727239e-01 +1.176103025e-01 +8.730611101e-01 +1.500966166e-01 -1.242198079e-01 +3.745137640e-01
60500000000.000000 +3.441117142e-02 +4.011445384e-01 +8.809498830e-01 +7.664225051e-02 +8.749950902e-01 +1.076328185e-01 -1.073402257e-01 +3.878821751e-01
61000000000.000000 +5.273563099e-02 +4.040381354e-01 +8.806266565e-01 +3.447454912e-02 +8.787855881e-01 +6.365447295e-02 -8.792386502e-02 +3.995836103e-01
61500000000.000000 +7.375568390e-02 +4.082085365e-01 +8.765476723e-01 -1.271832078e-02 +8.756962021e-01 +2.147064841e-02 -6.811925773e-02 +4.101800145e-01
62000000000.000000 +9.263386459e-02 +4.099444767e-01 +8.734349380e-01 -4.893116246e-02 +8.739937736e-01 -2.273439037e-02 -4.989758459e-02 +4.196830383e-01
62500000000.000000 +1.221038716e-01 +4.120842653e-01 +8.651769119e-01 -1.048804217e-01 +8.657256690e-01 -6.221783541e-02 -2.677242859e-02 +4.283575495e-01
63000000000.000000 +1.334630997e-01 +4.121791655e-01 +8.579931129e-01 -1.369292942e-01 +8.624328570e-01 -1.051838360e-01 -4.326219415e-03 +4.321127485e-01
63500000000.000000 +1.520629986e-01 +4.074182310e-01 +8.481234812e-01 -1.746249623e-01 +8.549845241e-01 -1.448165596e-01 +1.587231604e-02 +4.386371999e-01
64000000000.000000 +1.702038898e-01 +4.080648751e-01 +8.359056691e-01 -2.189850760e-01 +8.430652204e-01 -1.851850082e-01 +4.129444624e-02 +4.399183893e-01
64500000000.000000 +1.853269576e-01 +4.039611184e-01 +8.191352192e-01 -2.673467055e-01 +8.320238129e-01 -2.236280869e-01 +7.250176220e-02 +4.387375932e-01
65000000000.000000 +2.026437151e-01 +4.003357772e-01 +8.095891909e-01 -2.852675557e-01 +8.186638393e-01 -2.624172434e-01 +8.908456625e-02 +4.412824925e-01
65500000000.000000 +2.252628280e-01 +3.967705247e-01 +7.916450839e-01 -3.332186905e-01 +8.037991620e-01 -2.973897000e-01 +1.148957296e-01 +4.375280687e-01
66000000000.000000 +2.400057653e-01 +3.881334167e-01 +7.737480650e-01 -3.715208505e-01 +7.868757991e-01 -3.375672001e-01 +1.398757592e-01 +4.314137570e-01
66500000000.000000 +2.560029073e-01 +3.781538205e-01 +7.543177979e-01 -4.043328713e-01 +7.705763184e-01 -3.717712477e-01 +1.614904240e-01 +4.274930052e-01
67000000000.000000 +2.754600981e-01 +3.679639470e-01 +7.319330411e-01 -4.423667935e-01 +7.520377798e-01 -4.065471542e-01 +1.826463817e-01 +4.209145387e-01
67500000000.000000 +2.885347131e-01 +3.576302241e-01 +7.139995134e-01 -4.698263439e-01 +7.308598903e-01 -4.409947152e-01 +2.076332095e-01 +4.137830883e-01
68000000000.000000 +3.062169118e-01 +3.503245835e-01 +6.890477513e-01 -5.010187809e-01 +7.079980073e-01 -4.724393970e-01 +2.251748283e-01 +4.030996361e-01
68500000000.000000 +3.239250381e-01 +3.308863697e-01 +6.655781864e-01 -5.338013110e-01 +6.850506096e-01 -5.061876881e-01 +2.437977753e-01 +3.941484604e-01
69000000000.000000 +3.400978960e-01 +3.189545007e-01 +6.360042815e-01 -5.669982076e-01 +6.601230150e-01 -5.357457143e-01 +2.655608496e-01 +3.811759639e-01
69500000000.000000 +3.550915294e-01 +2.974033755e-01 +6.059519975e-01 -5.984625074e-01 +6.339920169e-01 -5.662689360e-01 +2.816733156e-01 +3.700876749e-01
70000000000.000000 +3.685417372e-01 +2.826477564e-01 +5.793655497e-01 -6.244903423e-01 +6.092413325e-01 -5.940478033e-01 +2.966184064e-01 +3.574202602e-01
70500000000.000000 +3.832211639e-01 +2.669716485e-01 +5.546307020e-01 -6.453822254e-01 +5.796151955e-01 -6.198330039e-01 +3.106572730e-01 +3.458406940e-01
71000000000.000000 +3.975580773e-01 +2.390411705e-01 +5.197669572e-01 -6.749241015e-01 +5.518950221e-01 -6.496392325e-01 +3.202496516e-01 +3.338274708e-01
71500000000.000000 +4.091714322e-01 +2.141509991e-01 +4.850153824e-01 -7.001793650e-01 +5.214602645e-01 -6.728421868e-01 +3.324412548e-01 +3.189188218e-01
72000000000.000000 +4.172345652e-01 +1.923389126e-01 +4.558839795e-01 -7.192696013e-01 +4.869157181e-01 -6.966649488e-01 +3.418861589e-01 +3.087398442e-01
72500000000.000000 +4.295758812e-01 +1.680074390e-01 +4.146482383e-01 -7.429309795e-01 +4.569704232e-01 -7.192639285e-01 +3.528069527e-01 +2.925279059e-01
73000000000.000000 +4.299716064e-01 +1.452555094e-01 +3.904740080e-01 -7.584817226e-01 +4.223102900e-01 -7.433328966e-01 +3.637096426e-01 +2.804369083e-01
73500000000.000000 +4.353884733e-01 +1.221768732e-01 +3.492447084e-01 -7.790402298e-01 +3.869698379e-01 -7.623035456e-01 +3.707778903e-01 +2.621043497e-01
74000000000.000000 +4.393237561e-01 +8.857686426e-02 +3.033388956e-01 -8.002086392e-01 +3.505811695e-01 -7.812930830e-01 +3.765728924e-01 +2.460361626e-01
74500000000.000000 +4.395955109e-01 +7.469207973e-02 +2.780135457e-01 -8.099278043e-01 +3.129901068e-01 -7.949586220e-01 +3.836943280e-01 +2.309800617e-01
75000000000.000000 +4.374538822e-01 +5.072953487e-02 +2.469540549e-01 -8.223730889e-01 +2.736378970e-01 -8.117137806e-01 +3.882736902e-01 +2.138580190e-01
75500000000.000000 +4.390807882e-01 +1.313860067e-02 +1.926641447e-01 -8.385016733e-01 +2.377641584e-01 -8.276123097e-01 +3.907627202e-01 +2.040714109e-01
76000000000.000000 +4.284821469e-01 -4.130457101e-03 +1.649246609e-01 -8.478396110e-01 +1.957296518e-01 -8.407542818e-01 +3.933723665e-01 +1.862232993e-01
76500000000.000000 +4.231072189e-01 -3.448354769e-02 +1.044558847e-01 -8.601968872e-01 +1.540035913e-01 -8.487886433e-01 +3.948109959e-01 +1.700699649e-01
77000000000.000000 +4.159001772e-01 -5.698647573e-02 +7.819186735e-02 -8.643202366e-01 +1.126829372e-01 -8.624966987e-01 +3.943264541e-01 +1.548174751e-01
77500000000.000000 +4.040116148e-01 -7.928241667e-02 +2.326000380e-02 -8.675444057e-01 +6.979052058e-02 -8.663337182e-01 +3.968839655e-01 +1.358424069e-01
78000000000.000000 +3.937802303e-01 -1.044853588e-01 -2.627177540e-02 -8.721264032e-01 +2.820062611e-02 -8.717366175e-01 +3.943605746e-01 +1.197965986e-01
78500000000.000000 +3.782050820e-01 -1.172229155e-01 -5.037698803e-02 -8.728592532e-01 -1.396038105e-02 -8.724657891e-01 +3.912087019e-01 +1.045867502e-01
79000000000.000000 +3.668508213e-01 -1.445279793e-01 -1.173886359e-01 -8.689989712e-01 -5.977922055e-02 -8.733521896e-01 +3.921589281e-01 +8.497803214e-02
79500000000.000000 +3.538847228e-01 -1.529789272e-01 -1.362012716e-01 -8.708526620e-01 -1.063772711e-01 -8.753522051e-01 +3.846837307e-01 +6.719490377e-02
80000000000.000000 +3.358794057e-01 -1.719323195e-01 -1.988174365e-01 -8.621635105e-01 -1.455669683e-01 -8.695744196e-01 +3.773395212e-01 +5.095273882e-02
80500000000.000000 +3.139653495e-01 -1.826012669e-01 -2.342757407e-01 -8.577761465e-01 -1.897122711e-01 -8.665382826e-01 +3.684600246e-01 +3.227911012e-02
81000000000.000000 +3.024878864e-01 -1.945293068e-01 -2.848301460e-01 -8.436132871e-01 -2.363612875e-01 -8.561935644e-01 +3.592343113e-01 +1.490062055e-02
81500000000.000000 +2.786788139e-01 -2.152103974e-01 -3.404633594e-01 -8.261531700e-01 -2.820478612e-01 -8.453279298e-01 +3.503079700e-01 -6.037624785e-03
82000000000.000000 +2.579904981e-01 -2.128321533e-01 -3.797077220e-01 -8.145094751e-01 -3.267658318e-01 -8.350719390e-01 +3.375568353e-01 -1.892395938e-02
82500000000.000000 +2.454696424e-01 -2.138877089e-01 -4.174018560e-01 -7.967881499e-01 -3.719714441e-01 -8.209605354e-01 +3.210545861e-01 -3.909165412e-02
83000000000.000000 +2.252231151e-01 -2.179904832e-01 -4.505335938e-01 -7.838689528e-01 -4.146312264e-01 -8.044101058e-01 +3.088373161e-01 -4.720888165e-02
83500000000.000000 +2.019878450e-01 -2.187939518e-01 -5.029860635e-01 -7.578391542e-01 -4.571447979e-01 -7.866848123e-01 +2.924456561e-01 -6.398721876e-02
84000000000.000000 +1.812004874e-01 -2.215201856e-01 -5.400032927e-01 -7.357098625e-01 -5.002527526e-01 -7.626165814e-01 +2.756243423e-01 -7.480152873e-02
84500000000.000000 +1.653988470e-01 -2.180399975e-01 -5.836982199e-01 -7.066379346e-01 -5.400530627e-01 -7.382416700e-01 +2.579514399e-01 -8.636110609e-02
85000000000.000000 +1.511462906e-01 -2.126001837e-01 -6.210532016e-01 -6.798941526e-01 -5.849545945e-01 -7.119285126e-01 +2.397259037e-01 -9.688672605e-02
85500000000.000000 +1.304727419e-01 -2.057837763e-01 -6.643488100e-01 -6.454934252e-01 -6.245454377e-01 -6.832743070e-01 +2.220223687e-01 -1.011966759e-01
86000000000.000000 +1.227118534e-01 -2.024018902e-01 -6.925743962e-01 -6.196242741e-01 -6.583783938e-01 -6.526586604e-01 +2.021502904e-01 -1.084183599e-01
86500000000.000000 +1.034235318e-01 -1.907779391e-01 -7.401697426e-01 -5.665662702e-01 -6.962855083e-01 -6.157036672e-01 +1.796510536e-01 -1.127301792e-01
87000000000.000000 +8.650715190e-02 -1.816780520e-01 -7.674674350e-01 -5.344464990e-01 -7.314965015e-01 -5.768124261e-01 +1.617397738e-01 -1.149069767e-01
87500000000.000000 +7.865224935e-02 -1.700266924e-01 -8.021858088e-01 -4.867454207e-01 -7.646513006e-01 -5.401981545e-01 +1.402984437e-01 -1.160066464e-01
88000000000.000000 +6.647398290e-02 -1.576309006e-01 -8.214270837e-01 -4.597006195e-01 -8.006359735e-01 -4.967961998e-01 +1.219634483e-01 -1.141245758e-01
88500000000.000000 +6.133659881e-02 -1.449530436e-01 -8.560021534e-01 -4.073271246e-01 -8.247611475e-01 -4.605111082e-01 +1.002578859e-01 -1.125975907e-01
89000000000.000000 +5.227249837e-02 -1.327417794e-01 -8.765478292e-01 -3.631771665e-01 -8.492288163e-01 -4.102312445e-01 +8.300901579e-02 -1.046890043e-01
89500000000.000000 +5.587351201e-02 -1.174760870e-01 -8.931743369e-01 -3.213234500e-01 -8.720978275e-01 -3.655415933e-01 +6.335939263e-02 -9.917586323e-02
90000000000.000000 +4.296514967e-02 -1.010824164e-01 -9.124548225e-01 -2.705144790e-01 -8.924777475e-01 -3.172230649e-01 +4.917434701e-02 -8.685397381e-02
90500000000.000000 +4.076133002e-02 -8.246489761e-02 -9.230240141e-01 -2.260066455e-01 -9.081190845e-01 -2.653379621e-01 +3.344240609e-02 -7.272763968e-02
91000000000.000000 +3.910250605e-02 -6.898213531e-02 -9.379712053e-01 -1.618153409e-01 -9.290230242e-01 -2.161171415e-01 +2.015254562e-02 -6.036034961e-02
91500000000.000000 +4.050808723e-02 -5.349556533e-02 -9.451361796e-01 -1.124892168e-01 -9.373018276e-01 -1.656824577e-01 +9.308541395e-03 -4.601728701e-02
92000000000.000000 +4.265287516e-02 -3.579016504e-02 -9.489053427e-01 -5.504892898e-02 -9.438650305e-01 -1.155467152e-01 +1.989802331e-03 -2.911254655e-02
92500000000.000000 +4.385290067e-02 -2.045131195e-02 -9.489471954e-01 -9.671965266e-04 -9.485535568e-01 -5.950803722e-02 -6.007659514e-03 -1.145393417e-02
93000000000.000000 +4.411407043e-02 -5.047708954e-03 -9.451212528e-01 +4.987360779e-02 -9.506829206e-01 -7.649884891e-03 -7.739424863e-03 +6.864869159e-03
93500000000.000000 +5.284170634e-02 +7.977858713e-03 -9.450959618e-01 +9.975563071e-02 -9.542575239e-01 +4.610788496e-02 -1.057958167e-02 +2.143549574e-02
94000000000.000000 +5.995255472e-02 +2.832770960e-02 -9.393303406e-01 +1.437808093e-01 -9.458302109e-01 +9.048081877e-02 -7.790673351e-03 +4.634707634e-02
94500000000.000000 +6.935660128e-02 +3.854450394e-02 -9.244862387e-01 +2.051050131e-01 -9.345779922e-01 +1.455785578e-01 -5.454923931e-03 +5.702227303e-02
95000000000.000000 +7.776746401e-02 +5.265004841e-02 -9.141000694e-01 +2.459266427e-01 -9.243580405e-01 +1.958702966e-01 +2.174694061e-03 +7.863691933e-02
95500000000.000000 +9.127642881e-02 +6.658558112e-02 -8.982070768e-01 +3.022144063e-01 -9.118220988e-01 +2.446224699e-01 +4.569260359e-03 +9.320466811e-02
96000000000.000000 +9.748970397e-02 +7.907291856e-02 -8.699206919e-01 +3.595450783e-01 -8.869756483e-01 +3.019911927e-01 +2.092033249e-02 +1.108911148e-01
96500000000.000000 +1.095959954e-01 +8.748954514e-02 -8.487362354e-01 +4.035105755e-01 -8.756606123e-01 +3.428874611e-01 +3.013817786e-02 +1.270650406e-01
97000000000.000000 +1.226803069e-01 +9.703634712e-02 -8.227605388e-01 +4.441594867e-01 -8.498727324e-01 +3.914697221e-01 +4.206118598e-02 +1.404351115e-01
97500000000.000000 +1.379397975e-01 +1.050583366e-01 -8.032494929e-01 +4.776670680e-01 -8.242653816e-01 +4.324908566e-01 +5.760949236e-02 +1.555678227e-01
98000000000.000000 +1.583445537e-01 +1.041313510e-01 -7.630675946e-01 +5.288784126e-01 -7.952033979e-01 +4.818845283e-01 +7.648410321e-02 +1.670062990e-01
98500000000.000000 +1.704707206e-01 +1.217374525e-01 -7.366395591e-01 +5.606451629e-01 -7.694001579e-01 +5.164198972e-01 +9.552186540e-02 +1.766332426e-01
99000000000.000000 +1.811466764e-01 +1.250293298e-01 -7.071280594e-01 +5.942429790e-01 -7.401156509e-01 +5.546691634e-01 +1.151876741e-01 +1.838440959e-01
99500000000.000000 +1.933997253e-01 +1.257581940e-01 -6.584879220e-01 +6.378210112e-01 -7.047090733e-01 +5.877980001e-01 +1.369127670e-01 +1.912446153e-01
100000000000.000000 +2.162680175e-01 +1.300261519e-01 -6.242219348e-01 +6.651302270e-01 -6.665542356e-01 +6.249846217e-01 +1.604315465e-01 +1.937772205e-01
100500000000.000000 +2.354716451e-01 +1.324673610e-01 -5.910379254e-01 +6.927182081e-01 -6.295584236e-01 +6.622655810e-01 +1.819241963e-01 +1.978497588e-01
101000000000.000000 +2.520184653e-01 +1.263004943e-01 -5.472140189e-01 +7.227066428e-01 -5.946919731e-01 +6.840257427e-01 +2.062102691e-01 +1.966720249e-01
101500000000.000000 +2.748388438e-01 +1.202215355e-01 -4.997937384e-01 +7.541459563e-01 -5.528083194e-01 +7.121139966e-01 +2.269527088e-01 +1.996429166e-01
102000000000.000000 +2.913753226e-01 +1.153512197e-01 -4.552722204e-01 +7.753519950e-01 -5.112464997e-01 +7.347949572e-01 +2.539761794e-01 +1.921358524e-01
102500000000.000000 +3.007755902e-01 +1.055020440e-01 -4.136218765e-01 +7.952247984e-01 -4.719991234e-01 +7.603078578e-01 +2.731565178e-01 +1.857093875e-01
103000000000.000000 +3.182296036e-01 +9.622239904e-02 -3.671841989e-01 +8.090991864e-01 -4.279174754e-01 +7.765389266e-01 +2.925359748e-01 +1.771520917e-01
103500000000.000000 +3.320236072e-01 +9.104037694e-02 -3.420931285e-01 +8.146539531e-01 -3.878926120e-01 +7.958504719e-01 +3.080594834e-01 +1.738616773e-01
104000000000.000000 +3.445927375e-01 +7.344542268e-02 -2.853553308e-01 +8.323478719e-01 -3.455249797e-01 +8.127524615e-01 +3.277288432e-01 +1.667460271e-01
104500000000.000000 +3.554144762e-01 +5.927804414e-02 -2.545257219e-01 +8.348929675e-01 -3.160059217e-01 +8.189211619e-01 +3.437676825e-01 +1.583649929e-01
105000000000.000000 +3.632890254e-01 +4.168272048e-02 -1.993644635e-01 +8.508738326e-01 -2.606129586e-01 +8.266074118e-01 +3.588336672e-01 +1.424644588e-01
105500000000.000000 +3.815465700e-01 +1.375742862e-02 -1.682937981e-01 +8.494059132e-01 -2.183919482e-01 +8.356924470e-01 +3.737047487e-01 +1.301697681e-01
106000000000.000000 +3.830095765e-01 -1.032689728e-02 -1.138945435e-01 +8.623432538e-01 -1.735281459e-01 +8.566775100e-01 +3.893745147e-01 +1.174619963e-01
106500000000.000000 +3.978071532e-01 -1.906249865e-02 -7.914303708e-02 +8.632508384e-01 -1.430478432e-01 +8.517732106e-01 +4.022153334e-01 +1.053027831e-01
107000000000.000000 +4.029370241e-01 -5.384151411e-02 -3.078214001e-02 +8.620159126e-01 -9.682006223e-02 +8.557475028e-01 +4.127246634e-01 +9.455574671e-02
107500000000.000000 +4.043098152e-01 -6.455863233e-02 +2.054469745e-03 +8.592888326e-01 -5.840171872e-02 +8.587547318e-01 +4.198333856e-01 +8.032396939e-02
108000000000.000000 +4.150291231e-01 -9.611787866e-02 +4.810734325e-02 +8.510344906e-01 -1.148785105e-02 +8.547761462e-01 +4.299894467e-01 +6.419259131e-02
108500000000.000000 +4.027329164e-01 -1.098405302e-01 +8.152583502e-02 +8.493005337e-01 +2.818415295e-02 +8.522280153e-01 +4.324629568e-01 +4.553645529e-02
109000000000.000000 +4.075052963e-01 -1.356194251e-01 +1.268785615e-01 +8.409663838e-01 +6.926057171e-02 +8.443716733e-01 +4.412891502e-01 +2.851717102e-02
109500000000.000000 +3.977932324e-01 -1.616877926e-01 +1.793898800e-01 +8.311396020e-01 +1.092518408e-01 +8.466766879e-01 +4.482389416e-01 +7.941516979e-03
110000000000.000000 +3.914603313e-01 -1.792239719e-01 +1.994731052e-01 +8.264800979e-01 +1.409439677e-01 +8.287658978e-01 +4.499184542e-01 -7.017625605e-04
110500000000.000000 +3.742518176e-01 -2.031893928e-01 +2.500708181e-01 +8.086206093e-01 +1.839310420e-01 +8.283639903e-01 +4.462784074e-01 -1.655611217e-02
111000000000.000000 +3.735798791e-01 -2.203961012e-01 +2.736370494e-01 +8.006614953e-01 +2.254554516e-01 +8.109848661e-01 +4.485539314e-01 -4.552966252e-02
111500000000.000000 +3.568672398e-01 -2.481296219e-01 +3.305522206e-01 +7.802705899e-01 +2.657261490e-01 +8.077784873e-01 +4.493664460e-01 -5.563832818e-02
112000000000.000000 +3.486759420e-01 -2.626417616e-01 +3.576500878e-01 +7.661646899e-01 +2.972230422e-01 +7.922270335e-01 +4.433841144e-01 -6.986170712e-02
112500000000.000000 +3.320838206e-01 -2.776136287e-01 +3.967233570e-01 +7.438681195e-01 +3.348162975e-01 +7.794918205e-01 +4.377909728e-01 -8.665256991e-02
113000000000.000000 +3.141780976e-01 -2.928391103e-01 +4.332809147e-01 +7.283610100e-01 +3.777175515e-01 +7.544405724e-01 +4.340218389e-01 -1.058160705e-01
113500000000.000000 +2.981151277e-01 -2.855176609e-01 +4.453914541e-01 +7.067316788e-01 +4.111387543e-01 +7.446398383e-01 +4.279798217e-01 -1.266965945e-01
114000000000.000000 +2.661827007e-01 -3.258988354e-01 +5.085563537e-01 +6.800057265e-01 +4.473273592e-01 +7.253402343e-01 +4.204522535e-01 -1.375032644e-01
114500000000.000000 +2.653628062e-01 -3.467081474e-01 +5.347132544e-01 +6.582270545e-01 +4.816566503e-01 +7.014445116e-01 +4.085112824e-01 -1.519127152e-01
115000000000.000000 +2.432200922e-01 -3.523850684e-01 +5.871581139e-01 +6.221116264e-01 +5.231578368e-01 +6.761298515e-01 +3.979952039e-01 -1.845613995e-01
115500000000.000000 +2.305818566e-01 -3.507270119e-01 +5.983299741e-01 +6.108388913e-01 +5.426912442e-01 +6.520691374e-01 +3.881471159e-01 -1.873849226e-01
116000000000.000000 +1.979805778e-01 -3.586665321e-01 +6.235294019e-01 +5.886822609e-01 +5.866394191e-01 +6.148704803e-01 +3.771905645e-01 -2.048208099e-01
116500000000.000000 +1.633689378e-01 -3.615641135e-01 +6.699196381e-01 +5.243544086e-01 +6.218684876e-01 +5.879181164e-01 +3.526902397e-01 -2.271967131e-01
117000000000.000000 +1.628179070e-01 -3.700216025e-01 +6.812401959e-01 +5.174606385e-01 +6.412103407e-01 +5.632438075e-01 +3.487112320e-01 -2.418599375e-01
117500000000.000000 +1.442940956e-01 -3.837364858e-01 +7.211181586e-01 +4.685888179e-01 +6.881436694e-01 +5.265622553e-01 +3.363473794e-01 -2.535685068e-01
118000000000.000000 +1.315985051e-01 -3.808671698e-01 +7.336145187e-01 +4.453449261e-01 +7.015831966e-01 +5.085501804e-01 +3.159061586e-01 -2.665271124e-01
118500000000.000000 +1.204765157e-01 -3.707329213e-01 +7.500035665e-01 +4.154379230e-01 +7.154669020e-01 +4.696435627e-01 +2.899978411e-01 -2.869215187e-01
119000000000.000000 +9.262223098e-02 -3.857841847e-01 +7.776959761e-01 +3.701427895e-01 +7.447893184e-01 +4.287260364e-01 +2.751012803e-01 -2.954497797e-01
119500000000.000000 +8.808185554e-02 -3.831792405e-01 +7.887667494e-01 +3.496659341e-01 +7.621794696e-01 +3.943451227e-01 +2.593785624e-01 -3.067456603e-01
120000000000.000000 +5.899606795e-02 -3.799038721e-01 +8.100798344e-01 +3.012807460e-01 +7.828012907e-01 +3.593868481e-01 +2.458892844e-01 -3.138304620e-01
120500000000.000000 +4.039300174e-02 -3.830918446e-01 +8.318460541e-01 +2.474587718e-01 +7.994958935e-01 +3.093865302e-01 +2.207054681e-01 -3.232676665e-01
121000000000.000000 +3.135349519e-02 -3.816683070e-01 +8.393387807e-01 +2.155073255e-01 +8.222513826e-01 +2.774013089e-01 +2.060172287e-01 -3.345663141e-01
121500000000.000000 +5.118891753e-03 -3.751874113e-01 +8.492633089e-01 +1.623100812e-01 +8.359018568e-01 +2.401176635e-01 +1.766380716e-01 -3.381139221e-01
122000000000.000000 +3.493833373e-04 -3.725123076e-01 +8.562720976e-01 +1.265144391e-01 +8.344291589e-01 +1.946904764e-01 +1.546916518e-01 -3.436958476e-01
122500000000.000000 -2.980866655e-02 -3.668343681e-01 +8.675968454e-01 +8.020505921e-02 +8.486381491e-01 +1.415918393e-01 +1.311908641e-01 -3.539722325e-01
123000000000.000000 -4.462811820e-02 -3.574004560e-01 +8.685904935e-01 +5.253150882e-02 +8.634885120e-01 +1.080138239e-01 +1.141748119e-01 -3.505635682e-01
123500000000.000000 -7.034277559e-02 -3.458217119e-01 +8.660950930e-01 +1.622409113e-02 +8.625898139e-01 +6.817636967e-02 +9.745950811e-02 -3.455393431e-01
124000000000.000000 -6.841259128e-02 -3.509920245e-01 +8.698325951e-01 -3.935704017e-02 +8.801326262e-01 +1.734684563e-02 +6.939409236e-02 -3.488943494e-01
124500000000.000000 -7.613150467e-02 -3.380627104e-01 +8.704851735e-01 -9.270797388e-02 +8.765386695e-01 -2.424572946e-02 +4.806186868e-02 -3.500934569e-01
125000000000.000000 -9.538103308e-02 -3.267430157e-01 +8.601212307e-01 -1.432912313e-01 +8.765298034e-01 -5.298660724e-02 +2.979126429e-02 -3.401822727e-01
125500000000.000000 -1.036697025e-01 -3.170969290e-01 +8.523534922e-01 -1.705091974e-01 +8.583820515e-01 -1.186968244e-01 +5.768675265e-03 -3.329083581e-01
126000000000.000000 -1.080861689e-01 -3.134836090e-01 +8.452634146e-01 -2.279331622e-01 +8.641376551e-01 -1.586330901e-01 -8.022551762e-03 -3.332673574e-01
126500000000.000000 -1.223910057e-01 -2.975750383e-01 +8.409402090e-01 -2.492522993e-01 +8.612798088e-01 -2.082439162e-01 -2.372263709e-02 -3.252125881e-01
127000000000.000000 -1.449051273e-01 -2.753603180e-01 +8.216992594e-01 -3.222340692e-01 +8.506560795e-01 -2.396532516e-01 -4.123269589e-02 -3.123656092e-01
127500000000.000000 -1.434091741e-01 -2.810907456e-01 +8.131810987e-01 -3.447312859e-01 +8.376492656e-01 -2.899036523e-01 -4.927491375e-02 -3.062083263e-01
128000000000.000000 -1.681066652e-01 -2.449471500e-01 +7.815126685e-01 -3.940975382e-01 +8.258463162e-01 -3.324539130e-01 -6.983186443e-02 -2.980634346e-01
128500000000.000000 -1.679920408e-01 -2.329374113e-01 +7.694526523e-01 -4.282675464e-01 +8.031466752e-01 -3.738819818e-01 -5.655616929e-02 -2.827979411e-01
129000000000.000000 -1.748009582e-01 -2.186894054e-01 +7.433028252e-01 -4.669498899e-01 +7.845239697e-01 -4.179493161e-01 -7.633948416e-02 -2.699720614e-01
129500000000.000000 -1.828981207e-01 -2.015134698e-01 +7.229506761e-01 -5.238672640e-01 +7.670363158e-01 -4.641980774e-01 -8.608831329e-02 -2.484199040e-01
130000000000.000000 -2.020912596e-01 -1.764792514e-01 +7.121294387e-01 -5.614187234e-01 +7.546476532e-01 -5.043308288e-01 -1.060566344e-01 -2.433498632e-01
130500000000.000000 -1.646476909e-01 -1.607183511e-01 +6.756792272e-01 -5.919362300e-01 +7.200183286e-01 -5.428259120e-01 -1.091715320e-01 -2.342551860e-01
131000000000.000000 -1.644358912e-01 -1.178783880e-01 +6.239488091e-01 -6.288245648e-01 +6.921541776e-01 -5.756441484e-01 -9.676394572e-02 -2.232211183e-01
131500000000.000000 -1.633234370e-01 -1.144725199e-01 +5.913125181e-01 -6.689885005e-01 +6.544206941e-01 -6.222841814e-01 -9.277900168e-02 -2.086882700e-01
132000000000.000000 -1.822803369e-01 -7.868180327e-02 +5.357188341e-01 -7.273542155e-01 +6.283562918e-01 -6.567885905e-01 -8.936479238e-02 -1.744024808e-01
132500000000.000000 -1.372128698e-01 -1.110226043e-01 +5.118031509e-01 -7.566178305e-01 +5.901631986e-01 -6.962759962e-01 -9.863316789e-02 -1.569526749e-01
133000000000.000000 -1.173745167e-01 -7.119000731e-02 +5.056309587e-01 -7.547636555e-01 +5.459946549e-01 -7.113070565e-01 -1.038482419e-01 -1.596055815e-01
133500000000.000000 -1.210857618e-01 -5.007948628e-02 +4.399093567e-01 -8.028491383e-01 +5.162593844e-01 -7.640326882e-01 -7.991982652e-02 -1.379816690e-01
134000000000.000000 -1.167196008e-01 -3.859990297e-02 +3.971258937e-01 -8.280429181e-01 +4.815646004e-01 -7.856156892e-01 -6.849190479e-02 -1.139061588e-01
134500000000.000000 -1.028527471e-01 -1.783564962e-02 +3.547378513e-01 -8.540988811e-01 +4.391720954e-01 -8.200220081e-01 -6.529851148e-02 -9.711354573e-02
135000000000.000000 -9.147483976e-02 -1.909564356e-02 +3.272187492e-01 -8.680575326e-01 +4.050552688e-01 -8.286827726e-01 -5.345481803e-02 -8.087534269e-02
135500000000.000000 -6.243187689e-02 -2.069430101e-02 +2.572804611e-01 -8.881875873e-01 +3.495945674e-01 -8.522653713e-01 -4.339672808e-02 -9.130905431e-02
136000000000.000000 -3.344923728e-02 -8.847631121e-03 +2.064927456e-01 -8.983308354e-01 +2.824888876e-01 -8.839317018e-01 -1.867096518e-02 -6.682146871e-02
136500000000.000000 -9.118658063e-03 -6.712649229e-04 +1.660822645e-01 -9.064087134e-01 +2.424253468e-01 -8.915617640e-01 +2.295521092e-03 -6.187718246e-02
137000000000.000000 -3.040251564e-02 -5.589447399e-03 +1.016333665e-01 -9.118168399e-01 +1.911317907e-01 -9.073442420e-01 +1.586259280e-02 -4.945734605e-02
137500000000.000000 +1.240665831e-02 -2.013485472e-03 +5.195838735e-02 -9.153196764e-01 +1.377676656e-01 -9.098155263e-01 +3.552746780e-02 -4.991782818e-02
138000000000.000000 +3.480734435e-02 +3.258163588e-03 +4.354328805e-03 -9.166503325e-01 +8.652154819e-02 -9.158709027e-01 +5.378011205e-02 -3.939637056e-02
138500000000.000000 +5.772421551e-02 -1.955958266e-02 -4.624644647e-02 -9.172252763e-01 +3.100809195e-02 -9.137698009e-01 +6.807779621e-02 -3.123135360e-02
139000000000.000000 +7.145052387e-02 -3.039274850e-02 -1.033815883e-01 -9.097594814e-01 -1.334411903e-02 -9.156480771e-01 +8.695093530e-02 -2.959289471e-02
139500000000.000000 +7.192889550e-02 -4.145943071e-02 -1.382374861e-01 -9.039662058e-01 -6.889196086e-02 -9.024930458e-01 +1.033896324e-01 -3.559240307e-02
140000000000.000000 +1.439249606e-01 -2.081412842e-02 -1.963901549e-01 -8.812963643e-01 -1.209669103e-01 -9.020209241e-01 +1.223994690e-01 -3.108720159e-02
140500000000.000000 +1.082133149e-01 -1.142081868e-01 -2.669670736e-01 -8.842761573e-01 -1.650650720e-01 -9.054441062e-01 +1.322281442e-01 -3.607640713e-02
141000000000.000000 +7.756779659e-02 -4.103690860e-02 -2.991839510e-01 -8.547009289e-01 -2.132088201e-01 -8.815436014e-01 +1.483569926e-01 -3.324391490e-02
141500000000.000000 +1.261140400e-01 -1.009850150e-01 -3.447479184e-01 -8.401567756e-01 -2.642290055e-01 -8.676748200e-01 +1.633487686e-01 -4.234124803e-02
142000000000.000000 +1.252938042e-01 -1.234128405e-01 -3.689081083e-01 -8.192404016e-01 -2.997853810e-01 -8.450324887e-01 +1.773095744e-01 -4.206119297e-02
142500000000.000000 +1.301286965e-01 -1.448481019e-01 -4.309375119e-01 -7.942219744e-01 -3.545252470e-01 -8.301348337e-01 +1.937270346e-01 -5.870918042e-02
143000000000.000000 +1.557456727e-01 -1.844253900e-01 -4.757215637e-01 -7.630207062e-01 -3.877554331e-01 -8.138247707e-01 +1.954740165e-01 -5.962408086e-02
143500000000.000000 +1.313316704e-01 -1.802735359e-01 -5.166978410e-01 -7.292685102e-01 -4.303912970e-01 -7.835615832e-01 +2.019991536e-01 -7.106090557e-02
144000000000.000000 +1.338363897e-01 -1.829227987e-01 -5.446375647e-01 -7.094442904e-01 -4.622284836e-01 -7.621808388e-01 +2.161024410e-01 -8.154140747e-02
144500000000.000000 +1.192691771e-01 -1.977512000e-01 -5.714840265e-01 -6.874095351e-01 -5.083306628e-01 -7.241005130e-01 +2.221417523e-01 -9.913292708e-02
145000000000.000000 +1.162734539e-01 -2.238251427e-01 -6.019983418e-01 -6.523395884e-01 -5.465014712e-01 -7.070835987e-01 +2.224966727e-01 -1.022312421e-01
145500000000.000000 +9.261525703e-02 -2.432216950e-01 -6.279391219e-01 -6.130139310e-01 -5.706833894e-01 -6.637047941e-01 +2.145000791e-01 -1.159817847e-01
146000000000.000000 +5.706934687e-02 -2.766274752e-01 -6.762888408e-01 -5.619634757e-01 -6.151510105e-01 -6.383671118e-01 +2.259944307e-01 -1.306441765e-01
146500000000.000000 +7.213898017e-02 -2.695755995e-01 -6.747739179e-01 -5.548172354e-01 -6.286017271e-01 -6.101610608e-01 +2.293287382e-01 -1.384345958e-01
147000000000.000000 +7.842287894e-02 -2.931740309e-01 -7.306132809e-01 -4.930248340e-01 -6.735795855e-01 -5.742454056e-01 +2.178954410e-01 -1.624782872e-01
147500000000.000000 +5.750232154e-02 -2.760981271e-01 -7.605359289e-01 -4.613768975e-01 -7.025150193e-01 -5.564831443e-01 +2.285679174e-01 -1.665604004e-01
148000000000.000000 +4.822699037e-02 -3.026972603e-01 -7.569727680e-01 -4.448100071e-01 -7.119533161e-01 -5.078008752e-01 +2.220402126e-01 -1.815452530e-01
148500000000.000000 +8.497075755e-03 -2.958184870e-01 -7.874741503e-01 -3.808258035e-01 -7.418238425e-01 -4.740452337e-01 +2.232500511e-01 -1.986551938e-01
149000000000.000000 +1.078889998e-02 -3.250004238e-01 -7.923985848e-01 -3.528032429e-01 -7.561284209e-01 -4.302396024e-01 +2.152393325e-01 -2.093643168e-01
149500000000.000000 -3.967893093e-03 -3.194240709e-01 -8.128830854e-01 -3.227251457e-01 -7.871389641e-01 -3.922004137e-01 +2.300263601e-01 -2.251394806e-01
150000000000.000000 -1.615717347e-02 -3.455816640e-01 -8.222642469e-01 -2.715851723e-01 -7.915601276e-01 -3.547720755e-01 +2.084627131e-01 -2.388568905e-01
