!Keysight Technologies,E5080B,MY59500459,A.17.35.16
!Date: Friday, August 22, 2025 11:25:17
!Correction: S11(C  2-Port  ) 
!S21(C  2-Port  ) 
!S12(C  2-Port  ) 
!S22(C  2-Port  ) 
!S2P File: Measurements: S11, S21, S12, S22:
# Hz S  dB   R 50
10000000 -53.509949 -6.7778702 -0.02143722 -0.93285829 -0.022591617 -0.92272782 -51.47567 -11.231619
18995000 -52.520287 -12.180614 -0.02179935 -1.7630316 -0.021541538 -1.7508216 -51.560333 -13.244154
27990000 -51.867794 -15.42479 -0.022537494 -2.5923722 -0.023177389 -2.5881054 -51.338074 -13.18647
36985000 -51.390045 -16.127771 -0.023342127 -3.4229388 -0.022763098 -3.4216366 -51.198826 -16.840136
45980000 -51.407898 -20.152716 -0.024230467 -4.2420831 -0.024111507 -4.2463775 -50.538406 -21.33539
54975000 -51.489578 -24.138403 -0.026007693 -5.0832119 -0.026405104 -5.0749817 -50.311729 -23.535547
63970000 -50.858673 -28.720263 -0.028294213 -5.9122539 -0.027738491 -5.9028797 -49.871063 -27.879007
72965000 -49.946224 -32.644741 -0.029289635 -6.7387486 -0.028946683 -6.7281594 -49.208096 -33.94997
81960000 -48.862232 -39.297073 -0.03022507 -7.5600829 -0.030440126 -7.5489302 -48.291229 -39.625809
90955000 -47.894173 -42.193268 -0.03207881 -8.3810768 -0.031595092 -8.3732681 -47.633553 -42.94236
99950000 -47.728821 -47.179684 -0.033890035 -9.2042866 -0.032799665 -9.1940641 -46.838715 -45.080833
108945000 -47.375004 -49.912724 -0.035404492 -10.022309 -0.034621887 -10.011085 -46.37711 -46.38044
117940000 -46.989639 -51.789619 -0.037602227 -10.839239 -0.036215428 -10.835309 -45.963409 -47.139984
126935000 -46.42609 -53.432735 -0.038548075 -11.661331 -0.037976675 -11.653014 -45.461456 -49.673687
135930000 -45.760101 -55.262356 -0.03955264 -12.480089 -0.038904842 -12.474996 -45.154095 -52.645493
144925000 -45.031189 -56.977062 -0.041794032 -13.297072 -0.040449791 -13.291912 -44.56065 -56.509224
153920000 -44.50465 -58.362873 -0.043526165 -14.117322 -0.042458728 -14.110593 -44.25523 -58.376549
162915000 -44.211685 -59.54063 -0.045134224 -14.938408 -0.043070193 -14.928191 -43.843151 -58.745426
171910000 -44.293674 -60.193672 -0.046780299 -15.755483 -0.045152273 -15.744961 -43.512863 -57.965111
180905000 -44.243145 -60.580406 -0.049205806 -16.572435 -0.04687947 -16.565414 -43.173412 -57.820961
189900000 -43.784275 -62.504673 -0.05007929 -17.399452 -0.049454533 -17.389778 -43.085701 -59.324249
198895000 -42.927814 -64.501259 -0.050972331 -18.218445 -0.049918771 -18.211153 -42.787094 -63.034527
207890000 -42.034103 -66.556427 -0.052971207 -19.033216 -0.051693182 -19.025894 -42.391922 -67.052895
216885000 -41.249985 -69.254242 -0.054515138 -19.852615 -0.053239804 -19.845608 -41.875751 -70.893021
225880000 -40.734814 -71.278992 -0.056177359 -20.670376 -0.0550722 -20.662027 -41.33725 -74.195526
234875000 -40.563099 -72.740479 -0.057923898 -21.477394 -0.056785513 -21.473846 -40.976665 -75.146194
243870000 -40.565701 -73.999214 -0.059284057 -22.294149 -0.058141641 -22.284767 -40.523586 -74.602333
252865000 -40.411388 -74.930473 -0.06092605 -23.107328 -0.060117576 -23.097029 -40.371952 -73.972389
261860000 -40.190372 -75.458557 -0.061591059 -23.915262 -0.061482098 -23.90863 -40.201855 -75.121292
270855000 -39.719139 -76.8284 -0.063581169 -24.727488 -0.063321918 -24.715878 -39.935555 -77.222572
279850000 -39.278641 -78.803238 -0.065416619 -25.546959 -0.064807259 -25.535021 -39.526711 -80.008186
288845000 -38.98737 -81.967377 -0.066130415 -26.361605 -0.066001102 -26.354868 -39.003815 -81.202217
297840000 -38.818314 -85.127319 -0.067659572 -27.17758 -0.067574121 -27.168503 -38.472866 -82.023842
306835000 -38.759933 -88.001022 -0.069679037 -27.994284 -0.069257133 -27.990204 -38.051857 -81.486694
315830000 -38.584351 -89.436005 -0.07104525 -28.816296 -0.070673726 -28.808693 -37.789288 -81.640808
324825000 -38.18784 -89.417381 -0.072422422 -29.62923 -0.071338385 -29.623798 -37.749947 -83.051414
333820000 -37.580673 -89.123871 -0.073671281 -30.443184 -0.072917558 -30.436405 -37.716915 -86.795212
342815000 -36.992603 -89.597313 -0.075300552 -31.25901 -0.073990405 -31.251272 -37.510582 -91.368713
351810000 -36.469288 -90.947449 -0.076355286 -32.070854 -0.075069569 -32.064404 -37.115551 -94.958115
360805000 -36.208622 -93.363335 -0.077667467 -32.879807 -0.077025555 -32.871254 -36.584545 -96.5336
369800000 -36.155159 -96.1707 -0.079794154 -33.692238 -0.078292347 -33.687027 -36.068119 -96.317848
378795000 -36.169338 -98.192833 -0.080360003 -34.504246 -0.079113968 -34.495033 -35.795162 -95.421562
387790000 -36.09161 -99.579292 -0.082024761 -35.315491 -0.080473393 -35.307613 -35.567478 -95.262848
396785000 -35.817688 -100.72458 -0.08341255 -36.128357 -0.082526527 -36.117294 -35.34029 -96.275002
405780000 -35.460587 -102.6274 -0.084329359 -36.941444 -0.083102502 -36.935375 -35.092239 -98.557182
414775000 -34.920296 -104.59939 -0.085204132 -37.755642 -0.084417515 -37.747322 -34.660557 -101.18298
423770000 -34.454605 -107.58164 -0.086830601 -38.566746 -0.086308002 -38.559189 -34.137104 -103.05287
432765000 -34.14283 -110.76805 -0.088479348 -39.381618 -0.08778327 -39.372028 -33.631195 -103.49654
441760000 -34.065834 -112.59151 -0.088819638 -40.193283 -0.088856891 -40.188469 -33.337749 -103.80184
450755000 -33.994164 -113.19116 -0.090347029 -41.003349 -0.090065822 -40.993752 -33.249969 -104.03082
459750000 -33.926487 -113.27606 -0.091540247 -41.809273 -0.091529407 -41.80257 -33.257645 -105.20834
468745000 -33.695759 -112.89349 -0.092835344 -42.621387 -0.092315197 -42.616989 -33.254784 -107.35024
477740000 -33.355648 -113.45108 -0.093702838 -43.435368 -0.09327621 -43.427723 -33.093403 -109.65353
486735000 -32.966263 -115.4625 -0.095674381 -44.247501 -0.094989583 -44.24099 -32.714657 -111.44576
495730000 -32.677673 -118.32318 -0.096711308 -45.067745 -0.096537672 -45.060757 -32.257935 -112.55917
504725000 -32.50518 -121.1955 -0.097019412 -45.884552 -0.09710677 -45.874043 -31.869566 -112.57043
513720000 -32.423225 -123.1535 -0.099136002 -46.695591 -0.09852533 -46.684669 -31.667053 -112.34672
522715000 -32.3871 -123.70561 -0.099912569 -47.505997 -0.099539898 -47.499886 -31.600643 -113.01627
531710000 -32.183502 -123.69778 -0.10126846 -48.318264 -0.10042436 -48.314354 -31.556406 -114.57317
540705000 -31.827744 -123.83913 -0.10193331 -49.126991 -0.10178756 -49.122108 -31.362251 -116.84724
549700000 -31.380487 -125.45425 -0.1046847 -49.93446 -0.10383198 -49.92709 -31.063007 -119.17729
558695000 -30.984818 -127.70628 -0.10531639 -50.749321 -0.10454919 -50.739727 -30.625494 -120.73189
567690000 -30.761608 -129.93942 -0.10591608 -51.5602 -0.10547604 -51.55191 -30.264177 -121.30894
576685000 -30.716648 -131.80383 -0.10757447 -52.365147 -0.10736167 -52.359867 -30.07929 -121.29194
585680000 -30.799194 -132.84718 -0.10837936 -53.176785 -0.10852825 -53.167778 -30.054819 -121.24067
594675000 -30.823753 -133.06087 -0.10878517 -53.990253 -0.10877668 -53.980106 -30.101753 -121.94048
603670000 -30.685493 -133.26808 -0.11057983 -54.798332 -0.10964126 -54.793312 -30.084093 -123.3654
612665000 -30.341612 -134.21544 -0.11182802 -55.613361 -0.11102542 -55.601082 -29.911991 -125.40115
621660000 -29.957357 -136.30992 -0.11262015 -56.430103 -0.1122594 -56.423584 -29.579521 -127.20766
630655000 -29.616623 -138.67339 -0.11373819 -57.245266 -0.11345174 -57.237728 -29.192362 -128.1931
639650000 -29.422056 -140.54828 -0.11582465 -58.057976 -0.11516751 -58.047981 -28.908363 -128.64377
648645000 -29.424234 -141.39337 -0.11641224 -58.872879 -0.11616284 -58.866199 -28.818579 -128.96298
657640000 -29.419895 -141.50699 -0.11642686 -59.684036 -0.11703181 -59.675228 -28.850878 -129.74113
666635000 -29.349884 -141.04912 -0.11827256 -60.490601 -0.11745971 -60.482571 -28.880899 -131.14861
675630000 -29.105757 -141.47162 -0.11961795 -61.300629 -0.11906799 -61.292164 -28.761808 -133.37569
684625000 -28.73966 -142.78548 -0.12005702 -62.113045 -0.12027099 -62.101517 -28.469822 -135.47128
693620000 -28.387291 -144.92715 -0.12216517 -62.920395 -0.12154886 -62.909218 -28.094975 -136.61542
702615000 -28.223795 -147.25073 -0.12392647 -63.728172 -0.12357437 -63.721779 -27.798912 -136.73813
711610000 -28.209286 -149.04491 -0.12447572 -64.543709 -0.12420402 -64.537079 -27.667633 -136.5163
720605000 -28.284931 -150.0065 -0.12561467 -65.354576 -0.12375095 -65.348587 -27.669998 -136.33955
729600000 -28.291805 -150.30553 -0.12670462 -66.162201 -0.12556432 -66.156418 -27.746534 -137.11131
738595000 -28.119545 -150.45073 -0.1278127 -66.976974 -0.1271404 -66.967224 -27.712894 -138.94992
747590000 -27.807304 -151.06412 -0.12891012 -67.793404 -0.12823899 -67.784973 -27.526716 -141.47318
756585000 -27.401077 -152.58884 -0.13035378 -68.600792 -0.12961523 -68.59304 -27.199814 -143.39317
765580000 -27.131046 -154.27261 -0.13186224 -69.413452 -0.1314161 -69.407608 -26.883541 -144.24716
774575000 -27.050234 -156.0148 -0.13233671 -70.228577 -0.13202234 -70.221832 -26.669853 -144.38084
783570000 -27.108368 -157.08836 -0.1335602 -71.039108 -0.13325776 -71.032387 -26.626194 -144.21059
792565000 -27.155188 -157.55569 -0.13463639 -71.849754 -0.13402471 -71.838966 -26.678143 -144.48433
801560000 -27.083826 -157.70071 -0.13604189 -72.660141 -0.13492103 -72.656097 -26.714834 -145.98207
810555000 -26.864519 -158.12843 -0.13652803 -73.478607 -0.13584104 -73.468559 -26.609505 -148.26358
819550000 -26.526459 -159.14699 -0.13883261 -74.285553 -0.13743822 -74.276718 -26.344055 -150.13799
828545000 -26.234585 -161.01602 -0.13994966 -75.097504 -0.13990021 -75.090515 -26.00094 -151.22528
837540000 -26.072378 -162.95659 -0.14096621 -75.916512 -0.14060737 -75.904747 -25.75461 -151.28668
846535000 -26.079988 -164.71411 -0.14146467 -76.722343 -0.14166071 -76.711906 -25.6294 -150.91411
855530000 -26.121647 -165.72101 -0.14332558 -77.529564 -0.14214827 -77.517937 -25.665905 -150.83649
864525000 -26.108553 -165.98088 -0.14373896 -78.346535 -0.14299946 -78.335075 -25.735435 -151.97177
873520000 -25.966822 -165.99524 -0.14484604 -79.163467 -0.14388853 -79.15461 -25.745136 -154.09756
882515000 -25.692316 -166.34126 -0.14654534 -79.966545 -0.14510673 -79.95697 -25.577045 -156.4971
891510000 -25.418875 -167.50348 -0.14815049 -80.78141 -0.14722814 -80.775703 -25.302509 -158.14687
900505000 -25.211548 -169.25142 -0.14873041 -81.59742 -0.14921825 -81.588104 -25.009205 -158.63722
909500000 -25.137627 -171.11603 -0.14988834 -82.402939 -0.14948696 -82.395203 -24.815922 -158.31602
918495000 -25.155985 -172.61095 -0.15218179 -83.215034 -0.15115458 -83.200577 -24.767376 -157.91176
927490000 -25.167143 -173.48834 -0.15222789 -84.032501 -0.15169308 -84.021149 -24.821754 -158.49825
936485000 -25.097544 -173.63309 -0.1527617 -84.843201 -0.15240565 -84.835556 -24.875305 -160.11565
945480000 -24.90723 -173.66805 -0.15533622 -85.654144 -0.15395878 -85.641083 -24.778749 -162.38754
954475000 -24.641861 -174.37003 -0.15613766 -86.473373 -0.15632604 -86.461983 -24.576735 -164.47493
963470000 -24.403522 -175.79858 -0.15740252 -87.285995 -0.1568778 -87.277534 -24.270517 -165.43658
972465000 -24.260017 -177.7081 -0.15913869 -88.089951 -0.15915078 -88.077003 -24.024307 -165.36182
981460000 -24.203777 -179.47073 -0.16022338 -88.897224 -0.16058169 -88.88797 -23.901649 -165.02277
990455000 -24.234339 179.43784 -0.16131614 -89.714104 -0.16046512 -89.702721 -23.921032 -165.13814
999450000 -24.234905 179.00278 -0.16182581 -90.521385 -0.16142225 -90.514008 -24.007111 -166.23543
1008445000 -24.132561 179.08562 -0.16353473 -91.332993 -0.1625962 -91.32412 -24.028128 -168.24231
1017440000 -23.931545 178.80684 -0.16488643 -92.154755 -0.16437371 -92.145729 -23.897564 -170.43022
1026435000 -23.699953 177.77551 -0.16618234 -92.967171 -0.16565414 -92.955559 -23.636854 -171.86852
1035430000 -23.507851 176.00394 -0.16919759 -93.772995 -0.16779664 -93.762283 -23.351171 -172.21709
1044425000 -23.397343 173.98743 -0.1707729 -94.582771 -0.1695324 -94.573296 -23.165815 -172.01804
1053420000 -23.376987 172.43286 -0.17081732 -95.397758 -0.17029448 -95.388855 -23.128134 -171.83478
1062415000 -23.373028 171.73953 -0.1712659 -96.205978 -0.1709393 -96.195633 -23.184959 -172.54565
1071410000 -23.340868 171.7347 -0.17238244 -97.018906 -0.17247215 -97.012459 -23.255648 -174.20706
1080405000 -23.214161 171.78427 -0.17301761 -97.84478 -0.17302272 -97.831215 -23.205214 -176.41579
1089400000 -22.998161 171.20279 -0.17448732 -98.6604 -0.17433049 -98.647736 -22.99367 -178.22177
1098395000 -22.770348 169.84529 -0.17765611 -99.463539 -0.17742178 -99.449257 -22.710983 -179.0433
1107390000 -22.617426 167.97296 -0.17990601 -100.27644 -0.17902894 -100.26406 -22.465246 -179.05946
1116385000 -22.55719 166.08072 -0.17957658 -101.08508 -0.17925933 -101.07742 -22.364773 -178.88445
1125380000 -22.568567 165.05717 -0.18149088 -101.89247 -0.18070309 -101.87943 -22.389845 -179.08948
1134375000 -22.58165 164.7507 -0.18201534 -102.70431 -0.18139318 -102.69265 -22.479155 179.83047
1143370000 -22.510731 164.6778 -0.18268564 -103.52886 -0.18197781 -103.51746 -22.490574 177.9229
1152365000 -22.348545 164.49188 -0.18462914 -104.34404 -0.18331313 -104.33201 -22.379343 176.04401
1161360000 -22.122877 163.44254 -0.18727748 -105.15178 -0.18644136 -105.13792 -22.122194 174.65399
1170355000 -21.920832 161.68909 -0.18952398 -105.96471 -0.18813322 -105.95324 -21.856682 174.14351
1179350000 -21.808128 159.85231 -0.18985388 -106.77415 -0.18986957 -106.76408 -21.683088 174.15575
1188345000 -21.777927 158.42346 -0.19059707 -107.57786 -0.19026522 -107.56918 -21.647448 174.10541
1197340000 -21.816412 157.78699 -0.19111075 -108.39119 -0.19162175 -108.38528 -21.717136 173.5323
1206335000 -21.790064 157.74347 -0.19203217 -109.21624 -0.1916296 -109.21086 -21.780828 172.12393
1215330000 -21.682581 157.69739 -0.19392924 -110.0357 -0.19319358 -110.02229 -21.726305 170.23181
1224325000 -21.481951 157.01833 -0.19703153 -110.84297 -0.19599448 -110.83473 -21.539335 168.48936
1233320000 -21.269503 155.66647 -0.19880964 -111.66425 -0.19847472 -111.65395 -21.275848 167.49678
1242315000 -21.111774 153.85211 -0.19957334 -112.47324 -0.19965465 -112.46168 -21.064365 167.21625
1251310000 -21.047609 152.24263 -0.20106292 -113.27089 -0.20171042 -113.26395 -20.956858 167.27481
1260305000 -21.066521 151.28409 -0.20244914 -114.09032 -0.202345 -114.07815 -20.985214 167.12476
1269300000 -21.094669 150.87558 -0.20260292 -114.91366 -0.20252427 -114.89967 -21.06214 166.2574
1278295000 -21.029749 150.80974 -0.2042813 -115.73074 -0.20382224 -115.71777 -21.078804 164.63907
1287290000 -20.873177 150.43257 -0.20684038 -116.54889 -0.20557952 -116.53415 -20.966242 162.74854
1296285000 -20.671907 149.43436 -0.20918421 -117.36348 -0.20752133 -117.3528 -20.74679 161.24063
1305280000 -20.481388 147.84711 -0.21068199 -118.17009 -0.20981255 -118.15848 -20.50149 160.49362
1314275000 -20.377848 146.19958 -0.21316983 -118.96792 -0.21226074 -118.96605 -20.34581 160.37971
1323270000 -20.369169 144.9137 -0.21426265 -119.78146 -0.21307221 -119.77982 -20.299341 160.4691
1332265000 -20.400291 144.27539 -0.21381587 -120.60489 -0.21282563 -120.59782 -20.371151 160.14301
1341260000 -20.394152 144.0213 -0.21488193 -121.41963 -0.2144136 -121.41393 -20.429003 158.91129
1350255000 -20.270628 143.786 -0.21800114 -122.23734 -0.21611041 -122.2357 -20.3953 156.9304
1359250000 -20.085442 143.14857 -0.21937563 -123.063 -0.21851642 -123.05919 -20.226107 155.14227
1368245000 -19.881157 141.85463 -0.22136748 -123.86715 -0.22071296 -123.86544 -19.978058 153.90269
1377240000 -19.754221 140.33449 -0.22360742 -124.66818 -0.22337958 -124.66329 -19.777994 153.62474
1386235000 -19.704165 138.84099 -0.22468352 -125.48056 -0.22494306 -125.47746 -19.664097 153.81119
1395230000 -19.729753 137.80472 -0.22551015 -126.29742 -0.22547415 -126.29199 -19.685587 153.84024
1404225000 -19.743206 137.27173 -0.22595787 -127.11511 -0.22633064 -127.10623 -19.772285 153.11971
1413220000 -19.678007 137.0649 -0.22836034 -127.93483 -0.22736515 -127.92701 -19.801502 151.53642
1422215000 -19.529696 136.58308 -0.2297048 -128.75996 -0.22910415 -128.75673 -19.709011 149.44914
1431210000 -19.333324 135.71474 -0.23242038 -129.56729 -0.23174426 -129.56117 -19.504318 147.82385
1440205000 -19.18445 134.35651 -0.23538116 -130.36838 -0.23463517 -130.36708 -19.26417 147.08537
1449200000 -19.103842 132.85947 -0.23658702 -131.18604 -0.23589739 -131.17888 -19.099497 147.14667
1458195000 -19.100275 131.59361 -0.23745254 -131.99861 -0.23635685 -131.98758 -19.070354 147.41998
1467190000 -19.116467 130.79102 -0.23860647 -132.80997 -0.23828268 -132.80257 -19.13225 147.12093
1476185000 -19.091957 130.40231 -0.23976891 -133.63194 -0.23917972 -133.62511 -19.20484 145.84547
1485180000 -18.983589 130.10339 -0.2411949 -134.45938 -0.24059348 -134.45436 -19.190104 143.85939
1494175000 -18.814678 129.50203 -0.24270457 -135.26764 -0.24359213 -135.26318 -19.0317 141.89413
1503170000 -18.652107 128.45282 -0.24673587 -136.07884 -0.24657805 -136.07057 -18.795187 140.79236
1512165000 -18.541142 127.03284 -0.24860325 -136.89131 -0.24868768 -136.88327 -18.593798 140.58327
1521160000 -18.499384 125.64416 -0.25048599 -137.69823 -0.24968009 -137.6945 -18.495604 140.89355
1530155000 -18.508581 124.57069 -0.25209188 -138.50497 -0.25032938 -138.50206 -18.525414 140.92088
1539150000 -18.50102 123.8866 -0.25205678 -139.32782 -0.25179288 -139.32504 -18.603758 140.05203
1548145000 -18.431147 123.57854 -0.25333121 -140.15439 -0.25283319 -140.1505 -18.641743 138.29779
1557140000 -18.309111 123.21004 -0.25528213 -140.96938 -0.25571674 -140.96242 -18.550552 136.34029
1566135000 -18.153597 122.4212 -0.25880608 -141.78023 -0.25868657 -141.776 -18.352121 134.7861
1575130000 -18.028933 121.22216 -0.26098737 -142.60237 -0.26080894 -142.59523 -18.137331 134.25899
1584125000 -17.95364 119.81892 -0.26298657 -143.40395 -0.26338345 -143.397 -17.989317 134.36423
1593120000 -17.937824 118.54237 -0.26440313 -144.20824 -0.26498532 -144.20432 -17.963827 134.50081
1602115000 -17.936886 117.67688 -0.26440093 -145.03052 -0.26489645 -145.02568 -18.029488 134.04369
1611110000 -17.898542 117.18956 -0.26568946 -145.84663 -0.26592863 -145.84695 -18.092838 132.70749
1620105000 -17.811831 116.88872 -0.26729468 -146.66652 -0.26796478 -146.6608 -18.081469 130.77875
1629100000 -17.678427 116.34916 -0.27121633 -147.48689 -0.27128136 -147.4834 -17.927755 129.07941
1638095000 -17.551857 115.3718 -0.27310255 -148.30626 -0.27335533 -148.3031 -17.71315 128.15697
1647090000 -17.45417 114.01035 -0.27665615 -149.11301 -0.2758534 -149.10301 -17.532326 127.99202
1656085000 -17.413641 112.6285 -0.2788547 -149.91182 -0.27779517 -149.90829 -17.452703 128.12
1665080000 -17.397753 111.53735 -0.27875671 -150.73076 -0.2783024 -150.72197 -17.483261 127.90916
1674075000 -17.381447 110.81841 -0.27902886 -151.54704 -0.2785795 -151.54137 -17.554983 126.95968
1683070000 -17.324825 110.52522 -0.28025714 -152.36594 -0.28045651 -152.35646 -17.584715 125.29189
1692065000 -17.221972 110.17484 -0.2838318 -153.19528 -0.28368399 -153.18755 -17.495075 123.56181
1701060000 -17.099041 109.41155 -0.28630856 -154.0172 -0.28665143 -154.00877 -17.319761 122.28652
1710055000 -16.984177 108.23304 -0.28983149 -154.8208 -0.28962034 -154.81281 -17.12611 121.76369
1719050000 -16.919811 106.82701 -0.29277822 -155.62355 -0.29205194 -155.6196 -16.995806 121.69736
1728045000 -16.893345 105.57738 -0.29296264 -156.44165 -0.29201815 -156.43604 -16.984535 121.60384
1737040000 -16.88434 104.72183 -0.2929956 -157.24568 -0.2927821 -157.2444 -17.037085 121.004
1746035000 -16.855669 104.30479 -0.29486939 -158.0649 -0.29451314 -158.05649 -17.088091 119.74711
1755030000 -16.784321 103.96814 -0.29694885 -158.90096 -0.29672712 -158.89238 -17.065447 118.14189
1764025000 -16.673132 103.36984 -0.2996397 -159.7242 -0.29982388 -159.71663 -16.931654 116.65988
1773020000 -16.553349 102.37531 -0.3033714 -160.5282 -0.30303606 -160.52109 -16.749964 115.72717
1782015000 -16.469208 101.05249 -0.30641845 -161.33626 -0.30518082 -161.33052 -16.597231 115.40813
1791010000 -16.427454 99.762657 -0.30713546 -162.14417 -0.30632427 -162.1371 -16.527393 115.25226
1800005000 -16.421795 98.707451 -0.30708766 -162.94658 -0.30675012 -162.94246 -16.553173 114.92445
1809000000 -16.410501 98.156059 -0.30853733 -163.76637 -0.308081 -163.75932 -16.612621 114.04426
1817995000 -16.364904 97.778656 -0.31039006 -164.6006 -0.309953 -164.59004 -16.631847 112.70803
1826990000 -16.267876 97.278145 -0.31422171 -165.43494 -0.31258962 -165.41966 -16.551603 111.15787
1835985000 -16.155918 96.486313 -0.31836203 -166.23756 -0.31636363 -166.228 -16.400534 109.93201
1844980000 -16.052683 95.275154 -0.32031399 -167.04579 -0.32010889 -167.04231 -16.236137 109.22353
1853975000 -15.99635 93.973282 -0.32194173 -167.853 -0.32101658 -167.84854 -16.125563 108.95232
1862970000 -15.974986 92.880257 -0.32291284 -168.65503 -0.3213633 -168.64461 -16.10882 108.74749
1871965000 -15.978305 92.171181 -0.32318974 -169.46904 -0.32242182 -169.46819 -16.149725 108.228
1880960000 -15.945545 91.669601 -0.32416752 -170.30614 -0.3242802 -170.29865 -16.193245 107.14975
1889955000 -15.872639 91.218628 -0.32704526 -171.12875 -0.32655823 -171.12115 -16.167416 105.68237
1898950000 -15.76331 90.525803 -0.33179769 -171.94505 -0.33082739 -171.93884 -16.052691 104.2927
1907945000 -15.667683 89.458221 -0.33478591 -172.76178 -0.3345446 -172.75406 -15.902833 103.27116
1916940000 -15.593827 88.252876 -0.33687729 -173.56523 -0.33529088 -173.55998 -15.770327 102.7551
1925935000 -15.572683 87.124969 -0.33664986 -174.36342 -0.3365609 -174.3548 -15.713698 102.53097
1934930000 -15.570544 86.2416 -0.33748212 -175.1756 -0.33787215 -175.16769 -15.724861 102.18388
1943925000 -15.555994 85.634842 -0.33864781 -176.00974 -0.3386288 -176.00345 -15.7658 101.45797
1952920000 -15.494385 85.179138 -0.34127474 -176.83374 -0.34167156 -176.82608 -15.769775 100.17845
1961915000 -15.393838 84.567566 -0.3456254 -177.65196 -0.3453863 -177.64088 -15.710703 98.722824
1970910000 -15.290602 83.666611 -0.34887671 -178.46933 -0.34967792 -178.4637 -15.586668 97.463585
1979905000 -15.220244 82.53746 -0.35059154 -179.27612 -0.34999385 -179.2662 -15.446822 96.65332
1988900000 -15.186274 81.369904 -0.35206112 179.92949 -0.35174844 179.93761 -15.353621 96.398491
1997895000 -15.183846 80.401131 -0.35205665 179.11716 -0.35192949 179.12393 -15.33484 96.175255
2006890000 -15.182537 79.663994 -0.35373116 178.2827 -0.35338828 178.29129 -15.361737 95.68335
2015885000 -15.133765 79.119377 -0.35582748 177.4644 -0.35577664 177.46767 -15.39637 94.667511
2024880000 -15.050143 78.573006 -0.35947281 176.64255 -0.35966879 176.6507 -15.377019 93.231705
2033875000 -14.95567 77.819206 -0.36292532 175.81363 -0.36262926 175.82022 -15.284524 91.77636
2042870000 -14.874551 76.811913 -0.36543715 175.01358 -0.36451593 175.0184 -15.150901 90.746147
2051865000 -14.833397 75.693504 -0.36664674 174.21707 -0.36610007 174.22006 -15.033012 90.259911
2060860000 -14.832184 74.630814 -0.36771831 173.40268 -0.36781466 173.4102 -14.980976 90.095001
2069855000 -14.827982 73.78772 -0.36855653 172.57671 -0.36846721 172.58289 -14.988045 89.791115
2078850000 -14.798605 73.19136 -0.37127325 171.76059 -0.37030622 171.76086 -15.026846 88.997223
2087845000 -14.728707 72.656471 -0.37498009 170.93092 -0.37427944 170.93819 -15.039752 87.675201
2096840000 -14.640212 71.93615 -0.37754637 170.10663 -0.37727162 170.1132 -14.983212 86.158562
2105835000 -14.553615 71.065285 -0.38001215 169.30219 -0.37955731 169.30794 -14.868509 84.946564
2114830000 -14.505688 70.008148 -0.38176477 168.50484 -0.38228545 168.51105 -14.739257 84.285385
2123825000 -14.489515 68.895142 -0.3828924 167.68622 -0.38333288 167.69301 -14.657489 84.108047
2132820000 -14.491415 67.964111 -0.38386846 166.86871 -0.38374883 166.87067 -14.639811 83.894005
2141815000 -14.47377 67.246529 -0.3861098 166.05667 -0.38523394 166.05977 -14.669253 83.346191
2150810000 -14.421693 66.664558 -0.38791665 165.22856 -0.38777429 165.23233 -14.708725 82.178833
2159805000 -14.342422 66.073059 -0.3909871 164.39729 -0.39084008 164.40062 -14.687861 80.697159
2168800000 -14.258018 65.309822 -0.39433974 163.59277 -0.39426291 163.59485 -14.601127 79.333305
2177795000 -14.202106 64.348816 -0.39732733 162.79155 -0.3970868 162.79486 -14.477134 78.451462
2186790000 -14.181229 63.273857 -0.39884406 161.97359 -0.39812621 161.98044 -14.373217 78.098427
2195785000 -14.179014 62.233456 -0.39976409 161.16057 -0.39892209 161.16434 -14.326719 77.934662
2204780000 -14.174212 61.436596 -0.40119621 160.34778 -0.40105453 160.35233 -14.345035 77.510307
2213775000 -14.139603 60.808067 -0.40288809 159.51689 -0.4026958 159.52042 -14.393776 76.540588
2222770000 -14.072871 60.21949 -0.4054476 158.68314 -0.40563941 158.69691 -14.401619 75.153229
2231765000 -13.988223 59.535004 -0.40889791 157.87985 -0.4083291 157.88293 -14.342563 73.754967
2240760000 -13.917078 58.650867 -0.41220462 157.07047 -0.41234466 157.0817 -14.226084 72.719749
2249755000 -13.881747 57.611347 -0.41475654 156.25232 -0.41433847 156.26167 -14.108112 72.212036
2258750000 -13.874917 56.542446 -0.41630301 155.44611 -0.41568425 155.45421 -14.039814 71.96656
2267745000 -13.882091 55.67004 -0.41705605 154.6342 -0.41694465 154.64447 -14.038093 71.652145
2276740000 -13.869105 54.952278 -0.41738889 153.80353 -0.41737607 153.81126 -14.090361 70.88047
2285735000 -13.823454 54.385509 -0.41849503 152.97743 -0.41916892 152.98347 -14.125338 69.662033
2294730000 -13.741789 53.766048 -0.42215341 152.16426 -0.4224641 152.17471 -14.098713 68.262863
2303725000 -13.667308 52.997749 -0.42635712 151.35199 -0.42659843 151.35873 -14.001632 67.108696
2312720000 -13.613148 51.931469 -0.43041486 150.53491 -0.42915824 150.5428 -13.880746 66.396225
2321715000 -13.592732 50.888882 -0.43177533 149.73283 -0.43107831 149.73714 -13.791003 66.04351
2330710000 -13.602636 49.948318 -0.43270895 148.92528 -0.43252707 148.93243 -13.770064 65.737366
2339705000 -13.612068 49.165722 -0.43186483 148.09387 -0.43121296 148.09729 -13.81241 65.112007
2348700000 -13.586273 48.605911 -0.43245873 147.26344 -0.43166697 147.2675 -13.853386 64.057518
2357695000 -13.523061 48.004711 -0.43540657 146.45343 -0.43561605 146.45363 -13.849738 62.778313
2366690000 -13.438163 47.26104 -0.44047108 145.63313 -0.44018918 145.63641 -13.774199 61.560925
2375685000 -13.364727 46.27478 -0.44479296 144.81403 -0.44415981 144.81752 -13.663582 60.679806
2384680000 -13.333015 45.189827 -0.44722262 144.01752 -0.44691676 144.02148 -13.558735 60.210037
2393675000 -13.344768 44.198563 -0.44739076 143.21234 -0.44749522 143.21373 -13.520223 59.895458
2402670000 -13.368312 43.359394 -0.44602597 142.38115 -0.44597232 142.38818 -13.546906 59.358673
2411665000 -13.369285 42.78949 -0.44488701 141.55486 -0.44581056 141.56668 -13.600071 58.460804
2420660000 -13.324805 42.255486 -0.4469139 140.73462 -0.4476634 140.74208 -13.615801 57.286186
2429655000 -13.236485 41.621716 -0.45170575 139.89864 -0.45274222 139.91002 -13.571279 56.003376
2438650000 -13.144135 40.707523 -0.45848659 139.08374 -0.4578943 139.09068 -13.466587 54.980621
2447645000 -13.09337 39.623959 -0.46230668 138.2897 -0.46262804 138.29785 -13.355306 54.337593
2456640000 -13.097326 38.536842 -0.46328461 137.48898 -0.46323219 137.492 -13.298399 53.977169
2465635000 -13.130634 37.625202 -0.46059322 136.66449 -0.46024728 136.67244 -13.302991 53.542542
2474630000 -13.153467 36.952515 -0.45838907 135.84088 -0.45897943 135.84937 -13.355244 52.878975
2483625000 -13.13526 36.472668 -0.46007171 135.01936 -0.46018222 135.02052 -13.396589 51.812359
2492620000 -13.058768 35.883121 -0.46570334 134.1765 -0.46521926 134.18491 -13.375198 50.552166
2501615000 -12.961655 35.074413 -0.47176239 133.3618 -0.47158983 133.36626 -13.288974 49.354725
2510610000 -12.88972 34.015491 -0.47625592 132.56972 -0.47645956 132.57384 -13.180507 48.547672
2519605000 -12.876082 32.930408 -0.47759527 131.76234 -0.47828132 131.77129 -13.10713 48.059959
2528600000 -12.91375 31.9202 -0.47508994 130.94611 -0.47534668 130.95177 -13.093914 47.692535
2537595000 -12.956396 31.210943 -0.47274363 130.12732 -0.47241634 130.13737 -13.135011 47.188484
2546590000 -12.96185 30.721081 -0.47250348 129.29558 -0.47219181 129.30515 -13.189501 46.296173
2555585000 -12.905357 30.213995 -0.47610456 128.44896 -0.47640669 128.459 -13.197326 45.031982
2564580000 -12.805949 29.49736 -0.48295575 127.62183 -0.48270983 127.63673 -13.130419 43.757084
2573575000 -12.716276 28.526134 -0.48905343 126.82816 -0.48907572 126.83657 -13.02986 42.7533
2582570000 -12.682793 27.365303 -0.49242815 126.03053 -0.491846 126.03434 -12.936468 42.158558
2591565000 -12.706569 26.236797 -0.48929563 125.22546 -0.48944485 125.2299 -12.90147 41.859329
2600560000 -12.759591 25.446421 -0.48715737 124.41885 -0.48567811 124.42126 -12.92606 41.52309
2609555000 -12.799249 24.880816 -0.48635182 123.58324 -0.48471913 123.59174 -12.985637 40.820957
2618550000 -12.763588 24.41717 -0.48872954 122.72945 -0.48746318 122.73532 -13.022553 39.641987
2627545000 -12.676114 23.807415 -0.49384069 121.90258 -0.49356952 121.90261 -12.986787 38.289165
2636540000 -12.574862 22.969751 -0.50135529 121.09878 -0.49963769 121.10657 -12.900434 37.085083
2645535000 -12.516888 21.845741 -0.50444132 120.29667 -0.50353456 120.29961 -12.801807 36.341675
2654530000 -12.523452 20.675503 -0.5029875 119.49465 -0.50266057 119.49901 -12.739095 36.022533
2663525000 -12.581475 19.729305 -0.5004065 118.69662 -0.49899793 118.70097 -12.748885 35.801456
2672520000 -12.640409 19.089859 -0.49789146 117.86528 -0.49647093 117.8743 -12.813401 35.265945
2681515000 -12.638359 18.603277 -0.49860537 117.00719 -0.49740493 117.01689 -12.869404 34.248447
2690510000 -12.57204 18.149563 -0.5034889 116.17497 -0.50263703 116.17583 -12.869848 32.833668
2699505000 -12.478143 17.430365 -0.5105809 115.35915 -0.50957304 115.36047 -12.801787 31.443424
2708500000 -12.399375 16.383472 -0.51454473 114.55084 -0.51484722 114.54991 -12.693014 30.477671
2717495000 -12.374921 15.176244 -0.51577932 113.75366 -0.51496905 113.75894 -12.608564 30.068972
2726490000 -12.415704 14.111814 -0.51292121 112.9669 -0.51269865 112.96943 -12.585348 29.939953
2735485000 -12.481939 13.280181 -0.51046294 112.13984 -0.50970811 112.1476 -12.632818 29.615263
2744480000 -12.516423 12.742299 -0.50931978 111.28815 -0.50894463 111.28902 -12.699523 28.773525
2753475000 -12.481883 12.364051 -0.51174742 110.44935 -0.51189154 110.45373 -12.737348 27.452431
2762470000 -12.402475 11.813531 -0.51849818 109.61801 -0.51815134 109.62241 -12.707623 25.960293
2771465000 -12.311012 10.869273 -0.52358723 108.79244 -0.52377617 108.79568 -12.61405 24.780901
2780460000 -12.254794 9.724967 -0.52628702 107.99604 -0.52591592 108.00443 -12.510364 24.189789
2789455000 -12.266364 8.5329609 -0.52587295 107.21589 -0.52438748 107.22579 -12.456165 24.05739
2798450000 -12.331632 7.5540953 -0.52256352 106.40385 -0.52151871 106.41206 -12.475782 23.919884
2807445000 -12.383192 6.9027758 -0.52077568 105.56358 -0.52001399 105.56596 -12.546098 23.306684
2816440000 -12.394103 6.589519 -0.52089387 104.72198 -0.51984155 104.72487 -12.61608 22.088686
2825435000 -12.339113 6.1970983 -0.52552819 103.87214 -0.52500558 103.8795 -12.629085 20.519287
2834430000 -12.250431 5.4753933 -0.53133959 103.03186 -0.53035736 103.04072 -12.560803 19.091551
2843425000 -12.176628 4.3650379 -0.53499919 102.23961 -0.534702 102.24638 -12.44615 18.293816
2852420000 -12.157285 3.1255305 -0.53633338 101.45902 -0.53580618 101.46338 -12.358472 18.084597
2861415000 -12.198022 1.9082234 -0.53425288 100.64936 -0.5345512 100.65953 -12.342277 18.049932
2870410000 -12.268159 1.0721799 -0.53189373 99.831055 -0.53073668 99.836693 -12.403964 17.728811
2879405000 -12.317546 0.68117869 -0.5295139 98.991531 -0.5293861 98.996284 -12.504303 16.803993
2888400000 -12.308228 0.38973531 -0.53144753 98.131111 -0.53109592 98.139748 -12.565794 15.24829
2897395000 -12.236311 -0.11020359 -0.53607154 97.278549 -0.53493214 97.283211 -12.533913 13.59785
2906390000 -12.143707 -1.0176151 -0.5414176 96.469025 -0.54038233 96.474937 -12.423908 12.486922
2915385000 -12.089464 -2.2820153 -0.54545134 95.686493 -0.54470944 95.692772 -12.305656 12.033548
2924380000 -12.088498 -3.6437411 -0.54697108 94.886215 -0.54544902 94.889084 -12.239281 12.014702
2933375000 -12.145169 -4.6839972 -0.54300839 94.07811 -0.5422349 94.084457 -12.266932 11.954053
2942370000 -12.223495 -5.2288146 -0.53914565 93.253738 -0.53881395 93.259247 -12.367658 11.361578
2951365000 -12.258439 -5.4811735 -0.53849745 92.388046 -0.53684151 92.388313 -12.472994 10.048684
2960360000 -12.217724 -5.7942204 -0.54003435 91.522881 -0.5390082 91.526665 -12.499367 8.3677711
2969355000 -12.130016 -6.4570489 -0.54595178 90.700821 -0.54452193 90.708664 -12.427514 6.9119921
2978350000 -12.046163 -7.6113586 -0.55151141 89.903648 -0.55064034 89.905983 -12.291979 6.1227407
2987345000 -12.014722 -9.028388 -0.55440032 89.11161 -0.55356747 89.110313 -12.184986 5.9244943
2996340000 -12.055869 -10.242136 -0.55233532 88.321625 -0.55186057 88.321396 -12.173274 5.9859471
3005335000 -12.142262 -11.057739 -0.54904616 87.503716 -0.54717517 87.510193 -12.256679 5.7524567
3014330000 -12.215378 -11.409279 -0.54378402 86.635796 -0.54340881 86.642319 -12.38628 4.794476
3023325000 -12.221651 -11.618917 -0.54409266 85.766205 -0.54232818 85.771873 -12.468157 3.2156923
3032320000 -12.145167 -12.024543 -0.54746145 84.92421 -0.54764968 84.931236 -12.442294 1.5223509
3041315000 -12.043686 -12.990955 -0.55591142 84.109947 -0.55447972 84.109894 -12.315744 0.29752132
3050310000 -11.971503 -14.336134 -0.56141073 83.31102 -0.56008708 83.322571 -12.167942 -0.20995331
3059305000 -11.977088 -15.721791 -0.56173623 82.543503 -0.56155592 82.542068 -12.099666 -0.12350029
3068300000 -12.058069 -16.728748 -0.55796456 81.735413 -0.55677497 81.742149 -12.146946 -0.12583911
3077295000 -12.161139 -17.271866 -0.55097592 80.883469 -0.55098766 80.887001 -12.282495 -0.63665062
3086290000 -12.213995 -17.463102 -0.54744351 80.012535 -0.54695112 80.011238 -12.41587 -1.9086155
3095285000 -12.183097 -17.689734 -0.5497098 79.15612 -0.54955113 79.163063 -12.462837 -3.6695213
3104280000 -12.080886 -18.415874 -0.55740887 78.311081 -0.55688798 78.318733 -12.373181 -5.2901301
3113275000 -11.983755 -19.633892 -0.56483716 77.50296 -0.56350452 77.510857 -12.216258 -6.203742
3122270000 -11.952759 -21.047554 -0.56793678 76.731026 -0.56755322 76.737732 -12.094729 -6.3226528
3131265000 -12.012677 -22.303581 -0.56488758 75.942711 -0.56428647 75.945984 -12.086715 -6.1516032
3140260000 -12.124151 -23.072815 -0.55794489 75.102951 -0.55732912 75.103096 -12.197134 -6.2661734
3149255000 -12.216361 -23.372295 -0.5518015 74.238503 -0.55101794 74.242111 -12.35745 -7.0977936
3158250000 -12.223936 -23.476757 -0.55158222 73.373817 -0.55019015 73.38063 -12.463373 -8.7543383
3167245000 -12.14391 -23.958582 -0.55767202 72.518036 -0.55627447 72.514679 -12.431496 -10.670774
3176240000 -12.026758 -24.961637 -0.56618643 71.698364 -0.56481242 71.701668 -12.283731 -12.034992
3185235000 -11.956649 -26.335966 -0.57169759 70.924873 -0.57163024 70.926392 -12.123188 -12.53348
3194230000 -11.982203 -27.735952 -0.57145667 70.137474 -0.57048857 70.137733 -12.058524 -12.361722
3203225000 -12.088757 -28.75469 -0.56466645 69.305275 -0.56407011 69.311798 -12.120679 -12.116867
3212220000 -12.210525 -29.22567 -0.55571753 68.461044 -0.55507475 68.467506 -12.291374 -12.459173
3221215000 -12.269713 -29.396082 -0.55284536 67.595253 -0.55126101 67.597855 -12.455811 -13.781175
3230210000 -12.229215 -29.664799 -0.55680293 66.712395 -0.55532038 66.716049 -12.502726 -15.797859
3239205000 -12.116608 -30.409874 -0.5655601 65.880692 -0.56378537 65.881058 -12.404829 -17.623806
3248200000 -12.017485 -31.624069 -0.57190639 65.096207 -0.57181066 65.094658 -12.230262 -18.575008
3257195000 -12.004839 -33.09679 -0.57491618 64.30587 -0.57427347 64.306587 -12.099442 -18.609159
3266190000 -12.079879 -34.354214 -0.56934899 63.492584 -0.56883639 63.495415 -12.100521 -18.194752
3275185000 -12.215154 -35.099174 -0.56055975 62.66362 -0.55950725 62.667408 -12.241567 -18.035753
3284180000 -12.319784 -35.33884 -0.55521095 61.791241 -0.55412591 61.795918 -12.434246 -18.910112
3293175000 -12.323022 -35.423298 -0.55557573 60.902134 -0.55561954 60.90387 -12.565434 -20.855295
3302170000 -12.230663 -35.87096 -0.560965 60.04467 -0.56167436 60.047829 -12.538562 -23.068619
3311165000 -12.120524 -36.800568 -0.56985515 59.236202 -0.56955647 59.237946 -12.368687 -24.653133
3320160000 -12.060365 -38.194744 -0.57465285 58.430862 -0.57570463 58.434113 -12.184355 -25.076345
3329155000 -12.094882 -39.702217 -0.57294536 57.638184 -0.57260865 57.639679 -12.096805 -24.602205
3338150000 -12.207225 -40.82365 -0.56587416 56.830814 -0.56596351 56.834454 -12.171882 -23.997414
3347145000 -12.333015 -41.441162 -0.55934179 55.976334 -0.55911797 55.980183 -12.359662 -24.186989
3356140000 -12.38783 -41.621521 -0.55686712 55.088356 -0.55626476 55.091618 -12.558314 -25.573124
3365135000 -12.350077 -41.809345 -0.55867934 54.226147 -0.55933028 54.227554 -12.638043 -27.801821
3374130000 -12.260972 -42.389786 -0.56634361 53.390709 -0.56582314 53.390263 -12.551731 -29.900768
3383125000 -12.189179 -43.586075 -0.57259417 52.573578 -0.57188743 52.577675 -12.359577 -30.994713
3392120000 -12.182123 -45.057335 -0.5727613 51.778114 -0.57199937 51.781288 -12.215457 -30.887442
3401115000 -12.265161 -46.365952 -0.56936932 50.986469 -0.56741369 50.983654 -12.206538 -30.272686
3410110000 -12.3845 -47.193558 -0.56171858 50.145332 -0.56108254 50.147785 -12.345003 -30.064024
3419105000 -12.470457 -47.507294 -0.55745596 49.258121 -0.55662137 49.264187 -12.559118 -30.971025
3428100000 -12.467445 -47.536575 -0.55725408 48.390289 -0.5566991 48.391632 -12.713053 -32.947151
3437095000 -12.393491 -47.83466 -0.56311756 47.525925 -0.56277162 47.52977 -12.698723 -35.305195
3446090000 -12.305504 -48.765781 -0.56921202 46.686867 -0.56895852 46.692463 -12.535743 -36.895042
3455085000 -12.270274 -50.176823 -0.57282186 45.885372 -0.57141709 45.896255 -12.350225 -37.200951
3464080000 -12.320313 -51.719479 -0.57041776 45.104313 -0.56952071 45.10788 -12.265182 -36.632874
3473075000 -12.429391 -52.942543 -0.56518328 44.274567 -0.56440616 44.283802 -12.338377 -36.116581
3482070000 -12.546636 -53.537418 -0.55850798 43.414021 -0.55767703 43.418709 -12.543301 -36.38229
3491065000 -12.605485 -53.581085 -0.5550074 42.541866 -0.55458617 42.545479 -12.760526 -37.900612
3500060000 -12.572957 -53.621407 -0.55801904 41.661251 -0.55714226 41.668068 -12.854128 -40.260677
3509055000 -12.4931 -54.203861 -0.56323659 40.793308 -0.5623284 40.804077 -12.758796 -42.373405
3518050000 -12.425853 -55.422672 -0.56803823 39.98119 -0.56699336 39.988445 -12.56289 -43.32497
3527045000 -12.434508 -57.021931 -0.5693962 39.20163 -0.56751108 39.206165 -12.410504 -43.116169
3536040000 -12.514635 -58.502464 -0.56550288 38.3881 -0.56480473 38.392956 -12.39652 -42.46048
3545035000 -12.640533 -59.42622 -0.55891365 37.543964 -0.5586369 37.551315 -12.55569 -42.187439
3554030000 -12.745012 -59.628918 -0.55340046 36.681015 -0.55237967 36.68008 -12.80547 -43.057953
3563025000 -12.769161 -59.536549 -0.55300915 35.785015 -0.55326289 35.782307 -12.989345 -45.122414
3572020000 -12.704187 -59.794128 -0.5567885 34.887691 -0.55663377 34.898384 -12.985858 -47.510063
3581015000 -12.622869 -60.690289 -0.56201905 34.059242 -0.56045431 34.069847 -12.818183 -49.120899
3590010000 -12.580037 -62.238247 -0.56515145 33.268929 -0.56353575 33.27821 -12.618112 -49.498329
3599005000 -12.624883 -63.911701 -0.56479502 32.467091 -0.56336331 32.470161 -12.51317 -48.965908
3608000000 -12.737282 -65.114632 -0.55901998 31.650339 -0.55764258 31.653313 -12.588728 -48.340294
3616995000 -12.870814 -65.609711 -0.55276185 30.802679 -0.55096561 30.805302 -12.82164 -48.535309
3625990000 -12.949858 -65.541306 -0.54894483 29.896132 -0.54817325 29.898296 -13.074476 -49.977379
3634985000 -12.937473 -65.476082 -0.55044079 28.986996 -0.54838914 28.994499 -13.198992 -52.325851
3643980000 -12.857978 -66.075768 -0.55463916 28.131039 -0.5527519 28.137192 -13.115966 -54.522221
3652975000 -12.791244 -67.425125 -0.55932146 27.314911 -0.55835342 27.321722 -12.9057 -55.638187
3661970000 -12.794538 -69.178307 -0.56076503 26.513693 -0.55853742 26.51527 -12.723496 -55.536434
3670965000 -12.885749 -70.680061 -0.55625182 25.71319 -0.55504888 25.716129 -12.705312 -54.763947
3679960000 -13.026965 -71.497192 -0.55024719 24.879351 -0.54897332 24.879379 -12.872228 -54.403931
3688955000 -13.149186 -71.592819 -0.5444181 23.976284 -0.54342639 23.982222 -13.154483 -55.129799
3697950000 -13.175824 -71.405991 -0.54396623 23.063562 -0.54200733 23.075867 -13.375394 -57.098976
3706945000 -13.115366 -71.620453 -0.54689711 22.187141 -0.54632229 22.197962 -13.401874 -59.599598
3715940000 -13.028521 -72.710014 -0.55304414 21.354734 -0.55153757 21.348557 -13.226912 -61.489231
3724935000 -12.986897 -74.395454 -0.55657548 20.542652 -0.55490565 20.536703 -12.993875 -62.015385
3733930000 -13.044786 -76.09716 -0.55410212 19.749102 -0.55328405 19.748011 -12.876225 -61.451351
3742925000 -13.186315 -77.271599 -0.54908729 18.924749 -0.54794359 18.931463 -12.954185 -60.64814
3751920000 -13.341103 -77.606453 -0.54171699 18.034555 -0.54044449 18.035612 -13.209163 -60.593109
3760915000 -13.421398 -77.378746 -0.53820586 17.12059 -0.5363571 17.12443 -13.50281 -61.917614
3769910000 -13.396097 -77.360512 -0.53988016 16.230692 -0.53785223 16.235069 -13.657505 -64.36129
3778905000 -13.306 -78.06031 -0.54551184 15.36316 -0.54429954 15.366244 -13.569593 -66.899117
3787900000 -13.234919 -79.53463 -0.55047047 14.541589 -0.54823643 14.543604 -13.332187 -68.247635
3796895000 -13.259812 -81.295784 -0.54962575 13.753579 -0.54828924 13.751376 -13.131592 -68.092926
3805890000 -13.38264 -82.778122 -0.54557109 12.941271 -0.54393101 12.944321 -13.108097 -67.163475
3814885000 -13.561009 -83.476608 -0.53835857 12.061656 -0.53644288 12.072189 -13.306668 -66.409142
3823880000 -13.690353 -83.433739 -0.53285056 11.162477 -0.53048897 11.165381 -13.63273 -66.897354
3832875000 -13.716828 -83.265038 -0.53245872 10.255939 -0.52960485 10.259585 -13.904347 -68.967186
3841870000 -13.641117 -83.629082 -0.53674459 9.3648663 -0.53478223 9.364996 -13.950448 -71.93634
3850865000 -13.545571 -84.804359 -0.54106957 8.5200768 -0.54001325 8.5219021 -13.749953 -74.204651
3859860000 -13.516221 -86.495087 -0.54347652 7.7249389 -0.54292679 7.7203984 -13.478146 -74.822121
3868855000 -13.601321 -88.163185 -0.54246628 6.9128108 -0.54036474 6.920013 -13.331521 -74.036736
3877850000 -13.770668 -89.260902 -0.53579271 6.05865 -0.53309757 6.0646448 -13.414029 -72.800003
3886845000 -13.948306 -89.521889 -0.52842504 5.1793284 -0.52576196 5.1773705 -13.712129 -72.352592
3895840000 -14.031048 -89.383797 -0.52511305 4.274508 -0.5238536 4.2754531 -14.068926 -73.618401
3904835000 -13.987992 -89.481796 -0.52775323 3.3685238 -0.52650237 3.3624077 -14.2677 -76.496666
3913830000 -13.897476 -90.275406 -0.53159207 2.4964807 -0.53101665 2.5015044 -14.189758 -79.487526
3922825000 -13.834249 -91.700783 -0.53544778 1.6812776 -0.53419936 1.6845732 -13.919632 -81.10743
3931820000 -13.884729 -93.411118 -0.53521466 0.86469775 -0.53420109 0.86436939 -13.679371 -80.926743
3940815000 -14.03415 -94.730026 -0.53033626 0.013288011 -0.52857035 0.027204853 -13.639055 -79.601036
3949810000 -14.220495 -95.322098 -0.52296382 -0.85185891 -0.52091688 -0.84769791 -13.842553 -78.495575
3958805000 -14.35164 -95.378601 -0.51943254 -1.7519774 -0.51794517 -1.7449791 -14.208073 -78.870163
3967800000 -14.36029 -95.356415 -0.51942933 -2.6708078 -0.51902062 -2.6625504 -14.535172 -81.114357
3976795000 -14.278 -95.794098 -0.52320647 -3.5540493 -0.52224588 -3.5449166 -14.605619 -84.396889
3985790000 -14.194551 -97.01606 -0.52830023 -4.3862157 -0.52676654 -4.3792567 -14.402674 -86.908737
3994785000 -14.212902 -98.690453 -0.52877206 -5.2228031 -0.52679956 -5.2106714 -14.107403 -87.508675
4003780000 -14.335576 -100.23189 -0.52554542 -6.0568371 -0.52266979 -6.0499578 -13.948142 -86.440628
4012775000 -14.53118 -101.22332 -0.51938266 -6.9103622 -0.51628774 -6.9031701 -14.042554 -84.952339
4021770000 -14.694367 -101.54787 -0.51409447 -7.8012857 -0.51217961 -7.7939258 -14.364734 -84.502823
4030765000 -14.750569 -101.40741 -0.51324952 -8.7198086 -0.51120281 -8.7149534 -14.7616 -85.930107
4039760000 -14.688517 -101.51295 -0.51500195 -9.6175795 -0.51341677 -9.6091652 -14.993527 -89.099365
4048755000 -14.602518 -102.31071 -0.51980394 -10.475506 -0.51759696 -10.467951 -14.910357 -92.328827
4057750000 -14.584508 -103.79457 -0.52239567 -11.32662 -0.51964378 -11.317526 -14.620862 -93.884926
4066745000 -14.681277 -105.51047 -0.5205282 -12.160635 -0.5177722 -12.153661 -14.360298 -93.40316
4075740000 -14.868423 -106.9218 -0.51473498 -12.99851 -0.51229 -12.992489 -14.314075 -91.815178
4084735000 -15.058505 -107.61022 -0.50972378 -13.878536 -0.50849378 -13.87468 -14.544271 -90.631271
4093730000 -15.162123 -107.60858 -0.50706488 -14.792927 -0.50531769 -14.78937 -14.958245 -91.07373
4102725000 -15.140169 -107.49281 -0.50752658 -15.697523 -0.5065363 -15.69017 -15.33043 -93.594276
4111720000 -15.056195 -107.89221 -0.51193756 -16.581974 -0.50983965 -16.572893 -15.416346 -97.106255
4120715000 -15.001185 -109.05674 -0.51533628 -17.454266 -0.51295096 -17.44109 -15.187257 -99.65992
4129710000 -15.058984 -110.76812 -0.51438212 -18.293777 -0.51226085 -18.283646 -14.867316 -100.08046
4138705000 -15.231763 -112.43787 -0.51065689 -19.126623 -0.50865883 -19.124529 -14.697709 -98.845963
4147700000 -15.442675 -113.48119 -0.50455379 -19.998276 -0.50315875 -19.994184 -14.800642 -97.251877
4156695000 -15.609448 -113.69379 -0.50154877 -20.904629 -0.49872965 -20.898148 -15.165606 -96.738373
4165690000 -15.641982 -113.49189 -0.49914601 -21.800894 -0.4983516 -21.79952 -15.616321 -98.310448
4174685000 -15.564335 -113.5377 -0.50350052 -22.702745 -0.5009259 -22.700249 -15.878392 -101.61323
4183680000 -15.481315 -114.4248 -0.50798076 -23.594053 -0.50480211 -23.590662 -15.786922 -104.92698
4192675000 -15.491151 -116.07584 -0.50826335 -24.445734 -0.50601161 -24.439312 -15.4642 -106.40115
4201670000 -15.638325 -117.93079 -0.50529617 -25.28438 -0.50296283 -25.277008 -15.188138 -105.83762
4210665000 -15.859955 -119.28512 -0.5001201 -26.149624 -0.49817014 -26.148603 -15.152619 -104.20362
4219660000 -16.069784 -119.75577 -0.49504972 -27.038305 -0.49334213 -27.040207 -15.414944 -102.96188
4228655000 -16.161942 -119.55312 -0.49354833 -27.939478 -0.49108741 -27.940439 -15.880955 -103.38683
4237650000 -16.109579 -119.27972 -0.49646193 -28.860405 -0.49334562 -28.855801 -16.290848 -106.01772
4246645000 -16.005367 -119.81962 -0.50143373 -29.763247 -0.49790275 -29.756628 -16.380791 -109.72775
4255640000 -15.971843 -121.30335 -0.50266171 -30.621655 -0.50011891 -30.620548 -16.125801 -112.35733
4264635000 -16.073296 -123.21877 -0.50236356 -31.467781 -0.49901506 -31.462969 -15.773883 -112.75959
4273630000 -16.298149 -124.94875 -0.49709636 -32.332245 -0.49486607 -32.32737 -15.592254 -111.41628
4282625000 -16.551586 -125.78284 -0.49096131 -33.209759 -0.48831239 -33.203568 -15.724075 -109.6661
4291620000 -16.720856 -125.60812 -0.48802361 -34.106873 -0.48502767 -34.108124 -16.146383 -108.98775
4300615000 -16.720457 -125.17182 -0.48947757 -35.036667 -0.48661298 -35.025517 -16.659969 -110.53194
4309610000 -16.614372 -125.33377 -0.49365768 -35.949615 -0.49088886 -35.94788 -16.946287 -114.02354
4318605000 -16.521273 -126.57664 -0.49753991 -36.830517 -0.49484923 -36.831886 -16.838123 -117.60171
4327600000 -16.56365 -128.56264 -0.49787256 -37.684826 -0.49546662 -37.685459 -16.465803 -119.2736
4336595000 -16.775623 -130.56487 -0.49433753 -38.54871 -0.49162945 -38.548923 -16.150875 -118.58553
4345590000 -17.069782 -131.80002 -0.48716924 -39.414864 -0.48530757 -39.415436 -16.123993 -116.71442
4354585000 -17.316475 -131.86919 -0.48284292 -40.310467 -0.48137727 -40.301502 -16.439817 -115.08115
4363580000 -17.392845 -131.22186 -0.48291987 -41.240707 -0.48091283 -41.235847 -16.986006 -115.29102
4372575000 -17.3009 -131.09351 -0.48611295 -42.158993 -0.48353469 -42.163822 -17.462082 -117.97169
4381570000 -17.165976 -131.99493 -0.49072364 -43.054401 -0.4882504 -43.050789 -17.574236 -122.18793
4390565000 -17.139452 -133.90115 -0.49230146 -43.926922 -0.49106565 -43.925777 -17.263567 -125.27824
4399560000 -17.305017 -136.16342 -0.4907164 -44.79496 -0.48897403 -44.797497 -16.858934 -125.80238
4408555000 -17.61005 -137.77621 -0.48461553 -45.65847 -0.48254609 -45.658485 -16.659843 -124.11462
4417550000 -17.928013 -138.09917 -0.47961465 -46.549507 -0.47808075 -46.544899 -16.824242 -121.90208
4426545000 -18.091171 -137.4072 -0.4785125 -47.472473 -0.4768562 -47.467953 -17.314299 -120.80283
4435540000 -18.039631 -136.78159 -0.48140937 -48.403015 -0.47850615 -48.401161 -17.9244 -122.24026
4444535000 -17.867041 -137.27528 -0.48457733 -49.308285 -0.48334807 -49.308647 -18.273727 -126.39839
4453530000 -17.78624 -139.06378 -0.48935357 -50.199265 -0.48800245 -50.197769 -18.131227 -130.68803
4462525000 -17.885069 -141.47273 -0.48990467 -51.073345 -0.48707163 -51.071453 -17.690672 -132.65671
4471520000 -18.200378 -143.52211 -0.4835344 -51.933945 -0.48151639 -51.930054 -17.322474 -131.69521
4480515000 -18.575554 -144.29352 -0.47706249 -52.816467 -0.47543794 -52.81612 -17.301582 -129.18024
4489510000 -18.832621 -143.68236 -0.47507897 -53.742779 -0.47273353 -53.73354 -17.670759 -126.95674
4498505000 -18.855482 -142.72325 -0.4753848 -54.671787 -0.47344908 -54.669491 -18.317684 -126.92204
4507500000 -18.682592 -142.68793 -0.48090503 -55.587582 -0.47742251 -55.582916 -18.892021 -130.16257
4516495000 -18.531916 -144.20628 -0.48542279 -56.492012 -0.48390824 -56.492226 -19.014797 -135.25531
4525490000 -18.555361 -146.83707 -0.48672241 -57.380173 -0.48492724 -57.372177 -18.642546 -138.82352
4534485000 -18.822618 -149.33052 -0.48365244 -58.238544 -0.4820101 -58.234779 -18.156622 -139.04132
4543480000 -19.244207 -150.62415 -0.47765422 -59.122734 -0.47544977 -59.114941 -17.936665 -136.7126
4552475000 -19.62602 -150.2964 -0.4740923 -60.041447 -0.47191909 -60.036503 -18.128681 -133.67604
4561470000 -19.758846 -148.98965 -0.47289515 -60.968681 -0.4710249 -60.965191 -18.718374 -132.20386
4570465000 -19.609186 -148.37819 -0.47648528 -61.892368 -0.47471943 -61.887123 -19.446438 -134.00465
4579460000 -19.379107 -149.50371 -0.48211047 -62.812157 -0.47981411 -62.81184 -19.882921 -139.15538
4588455000 -19.308014 -152.03163 -0.48536316 -63.710434 -0.48353875 -63.705654 -19.683006 -144.30098
4597450000 -19.498001 -154.94897 -0.48366258 -64.5812 -0.48181689 -64.57164 -19.141161 -146.25847
4606445000 -19.925293 -156.82678 -0.47906572 -65.459534 -0.4782998 -65.460732 -18.716219 -144.61589
4615440000 -20.439085 -157.01062 -0.47416449 -66.377472 -0.47206885 -66.36924 -18.693472 -141.15195
4624435000 -20.729616 -155.55591 -0.47135034 -67.297646 -0.46826181 -67.295731 -19.149443 -138.30092
4633430000 -20.667849 -154.27409 -0.47284839 -68.23468 -0.47142997 -68.222275 -19.952425 -138.21732
4642425000 -20.392502 -154.74516 -0.47846135 -69.158638 -0.47604939 -69.153008 -20.695227 -142.2939
4651420000 -20.209885 -157.03917 -0.48119769 -70.068848 -0.48019806 -70.057274 -20.822687 -148.73141
4660415000 -20.280355 -160.30656 -0.48289904 -70.943878 -0.48076016 -70.929764 -20.311726 -152.80168
4669410000 -20.678747 -162.88023 -0.48107305 -71.827812 -0.47867233 -71.823761 -19.682085 -152.42381
4678405000 -21.271013 -163.83073 -0.47612622 -72.736656 -0.47351894 -72.73259 -19.402243 -149.10573
4687400000 -21.73938 -162.63374 -0.47149694 -73.661903 -0.46865281 -73.652412 -19.645119 -145.16632
4696395000 -21.826515 -160.63133 -0.47205269 -74.59417 -0.46933627 -74.588493 -20.390387 -143.1545
4705390000 -21.554821 -160.23018 -0.47553757 -75.53392 -0.47407007 -75.52771 -21.359434 -145.3558
4714385000 -21.238588 -162.1109 -0.48049414 -76.448471 -0.4789634 -76.439201 -21.909136 -151.87558
4723380000 -21.175632 -165.54601 -0.48358098 -77.336723 -0.48128387 -77.32711 -21.620375 -158.13702
4732375000 -21.481304 -169.00298 -0.4832789 -78.234138 -0.48098108 -78.226242 -20.885389 -159.89441
4741370000 -22.097593 -170.90749 -0.47829837 -79.134521 -0.47675741 -79.132759 -20.353899 -157.33749
4750365000 -22.760138 -170.24501 -0.47389135 -80.047546 -0.4710148 -80.043564 -20.324427 -152.87471
4759360000 -23.090757 -167.65089 -0.47208965 -80.982773 -0.47015452 -80.98172 -20.916782 -149.19138
4768355000 -22.895185 -165.84874 -0.47384778 -81.928314 -0.47230291 -81.926476 -21.966902 -149.05357
4777350000 -22.474483 -166.83191 -0.47840962 -82.854095 -0.47718933 -82.852371 -22.940685 -154.37704
4786345000 -22.223488 -170.31 -0.48417535 -83.756226 -0.48144004 -83.750282 -23.038811 -162.42575
4795340000 -22.394566 -174.73489 -0.48562425 -84.661278 -0.48378643 -84.655647 -22.289804 -166.8163
4804335000 -23.005161 -178.04773 -0.48294967 -85.562859 -0.4807246 -85.561478 -21.480165 -165.58672
4813330000 -23.8599 -178.69279 -0.4772971 -86.476303 -0.47606066 -86.475502 -21.148949 -160.96069
4822325000 -24.48184 -175.96849 -0.47485775 -87.412643 -0.47333592 -87.411613 -21.504717 -155.87109
4831320000 -24.471344 -172.4695 -0.47495681 -88.365952 -0.47348776 -88.364075 -22.52709 -153.23633
4840315000 -23.981459 -171.82669 -0.47893912 -89.299599 -0.47610745 -89.299637 -23.843229 -155.9467
4849310000 -23.496475 -174.78915 -0.48435938 -90.211655 -0.48236734 -90.207718 -24.562775 -164.81671
4858305000 -23.436411 -179.65741 -0.48760363 -91.130257 -0.48607704 -91.121552 -23.999752 -172.88062
4867300000 -23.919197 175.4776 -0.4865568 -92.029312 -0.48501465 -92.026527 -22.925238 -174.32788
4876295000 -24.905762 172.95477 -0.48290569 -92.937424 -0.48064393 -92.931343 -22.21347 -170.33138
4885290000 -25.943981 174.79535 -0.47812381 -93.872871 -0.4771457 -93.865257 -22.227058 -164.12286
4894285000 -26.317484 179.52866 -0.47609705 -94.820724 -0.47523144 -94.817352 -23.043322 -158.75397
4903280000 -25.887676 -177.57285 -0.47877264 -95.75705 -0.47676173 -95.75547 -24.498953 -157.76718
4912275000 -25.152056 -179.49208 -0.48491219 -96.690971 -0.48216397 -96.685158 -25.888794 -164.52821
4921270000 -24.766762 175.03287 -0.48947498 -97.618935 -0.48806357 -97.613136 -25.919609 -176.07155
4930265000 -25.009317 168.61235 -0.49065959 -98.525795 -0.48926374 -98.527512 -24.712353 178.02217
4939260000 -25.971794 163.95558 -0.4887298 -99.436821 -0.48737803 -99.432175 -23.572826 -179.73111
4948255000 -27.373447 163.69116 -0.48572761 -100.37073 -0.48302054 -100.37003 -23.168127 -173.19476
4957250000 -28.362026 169.65804 -0.48165059 -101.32244 -0.47958142 -101.31437 -23.683971 -165.83514
4966245000 -28.135611 176.2381 -0.48144612 -102.26138 -0.47958112 -102.25522 -25.075512 -160.91045
4975240000 -27.157648 176.62891 -0.48605996 -103.19614 -0.48497209 -103.1975 -27.000195 -163.48828
4984235000 -26.393921 171.21826 -0.49026227 -104.13372 -0.49010956 -104.13147 -28.093019 -176.69476
4993230000 -26.347088 162.97862 -0.49426299 -105.04375 -0.49250934 -105.04476 -27.006239 171.33792
5002225000 -27.146088 155.30806 -0.4950735 -105.96195 -0.49268794 -105.95904 -25.381096 170.22867
5011220000 -28.756783 151.53333 -0.49201819 -106.89917 -0.4910413 -106.89652 -24.471359 176.56448
5020215000 -30.612732 155.84164 -0.48841116 -107.84719 -0.48636049 -107.8494 -24.546972 -174.1445
5029210000 -31.088671 166.80814 -0.48673835 -108.79259 -0.48522913 -108.79134 -25.653175 -165.48454
5038205000 -29.929979 171.87283 -0.49004754 -109.74356 -0.48840016 -109.73687 -27.793344 -162.09467
5047200000 -28.679611 167.543 -0.49446633 -110.68642 -0.4928019 -110.68221 -30.149843 -171.98727
5056195000 -28.138218 157.57675 -0.49771437 -111.60431 -0.49715093 -111.6019 -30.013042 167.36044
5065190000 -28.607101 146.88634 -0.50096887 -112.52148 -0.49820468 -112.52217 -27.816048 159.72035
5074185000 -30.159569 138.29463 -0.50018138 -113.46685 -0.49817681 -113.45986 -26.153934 164.8983
5083180000 -32.729115 137.14407 -0.49627563 -114.40947 -0.49429518 -114.40797 -25.613283 175.41557
5092175000 -34.674648 150.75024 -0.49542138 -115.35873 -0.49230814 -115.35732 -26.238447 -172.66589
5101170000 -33.621189 165.03592 -0.49514312 -116.31665 -0.49430621 -116.3127 -28.115957 -162.96458
5110165000 -31.635889 163.42407 -0.49989966 -117.27372 -0.49783367 -117.2711 -31.275873 -163.45979
5119160000 -30.376888 152.38179 -0.50412148 -118.19723 -0.50249547 -118.19621 -33.71241 172.81779
5128155000 -30.300388 138.1566 -0.50827962 -119.1246 -0.50515598 -119.12544 -31.355206 150.84868
5137150000 -31.477169 123.82652 -0.50896239 -120.06535 -0.50547588 -120.06011 -28.616455 151.93716
5146145000 -34.15221 113.14275 -0.50520051 -121.00256 -0.50322908 -121.0025 -27.306032 163.38086
5155140000 -38.480305 116.98632 -0.5037244 -121.94996 -0.50043494 -121.95112 -27.296755 178.12186
5164135000 -39.895241 149.70508 -0.50354999 -122.91416 -0.50027347 -122.91956 -28.596464 -167.24898
5173130000 -36.204388 160.00636 -0.50511324 -123.87578 -0.50375694 -123.87103 -31.638273 -157.28969
5182125000 -33.593548 148.10017 -0.50965804 -124.81027 -0.5074172 -124.8154 -36.796185 -167.76871
5191120000 -32.529369 129.61018 -0.51547676 -125.75534 -0.51177067 -125.75404 -36.709045 143.92032
5200115000 -32.807877 109.36119 -0.51640844 -126.70088 -0.51383775 -126.70164 -31.961876 136.25853
5209110000 -34.535595 88.50766 -0.51626849 -127.63333 -0.51399308 -127.64035 -29.406286 148.7011
5218105000 -38.288414 69.376144 -0.5136053 -128.58887 -0.51092619 -128.59053 -28.539076 166.20715
5227100000 -46.032051 63.09293 -0.51179808 -129.55769 -0.50950634 -129.55563 -29.057556 -174.75227
5236095000 -47.122665 144.16496 -0.51130593 -130.51915 -0.50967866 -130.51711 -31.185183 -156.25006
5245090000 -39.521244 139.15019 -0.51356041 -131.46263 -0.51225299 -131.461 -35.949791 -141.81876
5254085000 -36.014977 116.26329 -0.51890248 -132.41963 -0.51747561 -132.41989 -46.978043 -175.33
5263080000 -34.388691 91.497231 -0.52171665 -133.37216 -0.51966566 -133.37415 -37.956512 116.70877
5272075000 -34.240631 66.628342 -0.5224365 -134.31972 -0.52114773 -134.31445 -32.773766 130.45428
5281070000 -35.398308 40.997799 -0.52363485 -135.27132 -0.5212006 -135.26755 -30.606466 152.01038
5290065000 -38.206573 15.483334 -0.52144635 -136.242 -0.52024394 -136.23933 -30.081978 175.07693
5299060000 -44.206505 -7.1539602 -0.51996326 -137.20142 -0.51964664 -137.20523 -31.11484 -161.16321
5308055000 -55.733177 70.26339 -0.521761 -138.15746 -0.52005076 -138.15958 -34.020576 -134.92589
5317050000 -41.781277 91.316566 -0.52585661 -139.12323 -0.52371484 -139.1241 -40.401955 -100.3706
5326045000 -36.483864 69.86187 -0.52814263 -140.08395 -0.52696413 -140.08385 -48.39336 28.627615
5335040000 -33.980362 47.197556 -0.53183579 -141.03563 -0.52944314 -141.03014 -37.994873 98.543335
5344035000 -33.104191 24.647207 -0.53285003 -141.99791 -0.53115821 -141.99086 -33.819592 131.715
5353030000 -33.73233 3.3626797 -0.53232735 -142.96608 -0.5312764 -142.96385 -31.908869 161.17451
5362025000 -35.900703 -15.505988 -0.53148413 -143.93181 -0.52924252 -143.92712 -31.573252 -170.0041
5371020000 -40.247013 -23.843451 -0.53113687 -144.88737 -0.52970809 -144.88661 -32.639805 -139.48088
5380015000 -43.752281 15.873182 -0.53303057 -145.86058 -0.53258836 -145.86038 -34.993237 -103.06045
5389010000 -37.795544 39.777012 -0.53757536 -146.82295 -0.53548056 -146.82507 -38.69519 -54.230595
5398005000 -33.516552 30.524199 -0.54069602 -147.77769 -0.53907853 -147.7748 -41.53891 21.816772
5407000000 -31.517342 14.865114 -0.54442805 -148.74184 -0.5425933 -148.74373 -38.227325 96.176445
5415995000 -31.036358 -2.4166791 -0.54545224 -149.72482 -0.54331785 -149.7195 -34.601948 140.95605
5424990000 -31.931158 -18.654142 -0.54372913 -150.6852 -0.54203576 -150.69025 -32.708332 176.0824
5433985000 -34.224842 -29.738159 -0.5426957 -151.66258 -0.54002178 -151.65279 -32.113155 -149.8773
5442980000 -37.421993 -23.21644 -0.54331756 -152.64154 -0.54136157 -152.63853 -32.457993 -114.98724
5451975000 -37.048725 5.2404685 -0.54558432 -153.61514 -0.54295409 -153.60524 -33.671543 -78.894394
5460970000 -33.215553 13.240122 -0.54873776 -154.56595 -0.54589367 -154.56567 -36.288197 -38.013126
5469965000 -30.477192 5.3620148 -0.55342692 -155.5452 -0.55188996 -155.53796 -40.059734 22.778605
5478960000 -29.342709 -7.3929782 -0.55638307 -156.53053 -0.55374569 -156.52245 -39.078968 104.53568
5487955000 -29.520029 -21.386223 -0.5567953 -157.4955 -0.55353868 -157.4872 -35.104881 157.38882
5496950000 -30.877123 -33.179787 -0.55590612 -158.48012 -0.55315143 -158.46812 -32.627506 -163.29337
5505945000 -33.189552 -35.996433 -0.55403155 -159.4697 -0.55295795 -159.45506 -31.342594 -129.18991
5514940000 -34.595577 -19.859419 -0.55452329 -160.43968 -0.5532617 -160.42699 -31.139257 -97.760666
5523935000 -32.508144 -2.9527915 -0.55751747 -161.40845 -0.55600995 -161.39236 -32.379078 -66.360954
5532930000 -29.657578 -2.984561 -0.56302029 -162.39781 -0.56092054 -162.38206 -35.62278 -30.672569
5541925000 -28.125795 -12.029936 -0.56802469 -163.37863 -0.56458658 -163.36797 -41.260483 31.9965
5550920000 -27.774712 -23.705006 -0.56838197 -164.35002 -0.56776035 -164.33531 -39.278545 129.26805
5559915000 -28.588482 -35.072716 -0.56912321 -165.34221 -0.56810433 -165.3237 -34.15081 -179.81128
5568910000 -30.307787 -41.637188 -0.5680958 -166.33919 -0.56583697 -166.32553 -31.241253 -145.19684
5577905000 -32.167965 -34.842106 -0.56667864 -167.31628 -0.56367517 -167.29878 -29.863981 -115.23261
5586900000 -31.646919 -18.26429 -0.5678677 -168.29324 -0.56476611 -168.27451 -30.015196 -87.40477
5595895000 -29.212166 -11.996969 -0.57244146 -169.2897 -0.56816041 -169.26462 -31.918627 -58.842701
5604890000 -27.333242 -16.902485 -0.57480389 -170.26657 -0.57280654 -170.25107 -36.332497 -23.229435
5613885000 -26.593151 -26.591133 -0.57773197 -171.24506 -0.57620913 -171.2236 -44.215202 59.445042
5622880000 -26.937023 -37.149925 -0.58064789 -172.23965 -0.57858187 -172.22342 -37.33997 159.94667
5631875000 -28.258146 -44.779381 -0.58062953 -173.24248 -0.57760131 -173.22696 -32.076412 -161.80087
5640870000 -30.07708 -43.324299 -0.57860464 -174.22984 -0.57682788 -174.21268 -29.533844 -133.05493
5649865000 -30.580238 -30.141226 -0.57809895 -175.222 -0.57682669 -175.20171 -28.815514 -106.66354
5658860000 -28.820232 -20.175215 -0.58158445 -176.22594 -0.57981384 -176.20541 -29.699152 -80.567917
5667855000 -26.827143 -21.787954 -0.58529347 -177.21271 -0.58257157 -177.19186 -32.489441 -51.699539
5676850000 -25.748711 -29.486744 -0.5897243 -178.19028 -0.5874157 -178.16885 -38.980129 -12.565447
5685845000 -25.7351 -39.281315 -0.59300494 -179.19083 -0.59135479 -179.17049 -43.407917 124.15759
5694840000 -26.66622 -47.383736 -0.59264886 179.80486 -0.5908829 179.8203 -33.890324 178.95586
5703835000 -28.235434 -48.996979 -0.59072512 178.8127 -0.58904892 178.83046 -29.846903 -151.95697
5712830000 -29.267971 -39.900623 -0.5907343 177.81017 -0.58814448 177.82433 -28.247297 -126.49509
5721825000 -28.290653 -28.588627 -0.59110594 176.79417 -0.59055817 176.81129 -28.304731 -101.33247
5730820000 -26.418352 -26.808907 -0.59485304 175.80402 -0.59187627 175.81671 -30.062035 -75.174118
5739815000 -25.136169 -32.599556 -0.59919769 174.81161 -0.59646708 174.82799 -34.326294 -46.641968
5748810000 -24.821865 -41.344379 -0.6051389 173.80656 -0.60174417 173.81856 -46.605415 14.719378
5757805000 -25.409498 -49.524231 -0.6071524 172.80284 -0.60373735 172.81912 -37.095394 157.78551
5766800000 -26.730944 -52.94043 -0.60576117 171.79999 -0.60393041 171.81369 -30.831099 -171.68193
5775795000 -27.986275 -47.35857 -0.60500234 170.78201 -0.60275251 170.79547 -28.256924 -146.35608
5784790000 -27.713297 -36.353527 -0.60427845 169.75487 -0.60007232 169.77339 -27.572735 -121.57928
5793785000 -26.120461 -31.846935 -0.60467863 168.75958 -0.60225409 168.77258 -28.499727 -96.703423
5802780000 -24.731443 -35.793011 -0.60931814 167.75937 -0.60704345 167.7764 -31.346231 -70.501144
5811775000 -24.130518 -43.499844 -0.61544591 166.75227 -0.61219895 166.76964 -38.473717 -38.635441
5820770000 -24.423439 -51.387882 -0.61916631 165.74834 -0.6158486 165.76643 -43.245785 125.50563
5829765000 -25.480053 -55.757813 -0.61954457 164.74124 -0.61713177 164.75549 -32.527363 166.39809
5838760000 -26.778507 -52.762329 -0.61896098 163.70686 -0.61650521 163.7249 -28.778883 -167.87321
5847755000 -27.04266 -42.985439 -0.61688262 162.67444 -0.61502302 162.69051 -27.39254 -143.39629
5856750000 -25.824087 -36.674908 -0.61651891 161.66376 -0.61432993 161.67509 -27.609381 -118.4662
5865745000 -24.43284 -38.663364 -0.61937141 160.65147 -0.61694229 160.66127 -29.466986 -93.071495
5874740000 -23.648962 -45.374355 -0.62541538 159.63866 -0.62180728 159.65132 -34.091511 -65.686066
5883735000 -23.676929 -52.929203 -0.6291551 158.63603 -0.62532806 158.64784 -48.803772 9.8642645
5892730000 -24.464132 -58.021542 -0.63067389 157.62819 -0.62790817 157.63495 -35.400387 140.46634
5901725000 -25.70182 -57.027195 -0.63154137 156.58305 -0.62872338 156.5981 -29.879017 168.74611
5910720000 -26.269526 -48.968449 -0.62994599 155.53897 -0.62700522 155.55072 -27.680653 -166.3042
5919715000 -25.497658 -41.698906 -0.62821239 154.51268 -0.62584949 154.52078 -27.244499 -141.54456
5928710000 -24.174152 -41.724365 -0.63091367 153.4828 -0.62802452 153.49239 -28.333767 -116.51376
5937705000 -23.244181 -47.310062 -0.63424772 152.46265 -0.63152164 152.46941 -31.574999 -90.721748
5946700000 -23.042948 -54.565186 -0.63790125 151.46205 -0.63391674 151.46353 -40.438709 -54.644783
5955695000 -23.574797 -60.011456 -0.64017504 150.44209 -0.63796717 150.44846 -39.519253 108.98434
5964690000 -24.607796 -60.524792 -0.64184833 149.39485 -0.63873178 149.39742 -31.322008 142.91841
5973685000 -25.386715 -54.309704 -0.6408149 148.33875 -0.63630408 148.34802 -28.22365 168.76071
5982680000 -24.976439 -46.631161 -0.63873237 147.29283 -0.63543981 147.29739 -27.156942 -166.14331
5991675000 -23.860424 -44.8792 -0.64097333 146.2478 -0.63694972 146.2511 -27.669714 -141.26714
6000670000 -22.890787 -49.10067 -0.64255565 145.21349 -0.6406523 145.22253 -30.055857 -116.14767
6009665000 -22.540956 -55.81245 -0.64566559 144.21007 -0.64278978 144.20952 -36.109951 -85.879005
6018660000 -22.849085 -61.601833 -0.65041918 143.18304 -0.64624685 143.1908 -45.019093 56.613003
6027655000 -23.720329 -63.241207 -0.65190691 142.13707 -0.64835578 142.13989 -32.994843 114.40073
6036650000 -24.520922 -58.693478 -0.6503861 141.07994 -0.64777339 141.08093 -28.897655 141.93127
6045645000 -24.463112 -50.984673 -0.65083653 140.0139 -0.64770907 140.02542 -27.275707 167.40327
6054640000 -23.52566 -47.842373 -0.65187234 138.94278 -0.64937621 138.95073 -27.285223 -167.72093
6063635000 -22.566504 -50.611423 -0.65234578 137.89743 -0.65041316 137.90143 -29.053558 -142.79561
6072630000 -22.06008 -56.850815 -0.65491396 136.87555 -0.65248322 136.88379 -33.691414 -114.94741
6081625000 -22.201559 -62.786079 -0.65758127 135.84593 -0.65681273 135.85774 -46.908192 -28.708994
6090620000 -22.884396 -65.734825 -0.6601131 134.79276 -0.65826684 134.80515 -34.666893 84.239243
6099615000 -23.698341 -62.855629 -0.66021979 133.73996 -0.65870905 133.74614 -29.405622 113.95556
6108610000 -23.856016 -55.833607 -0.65966356 132.65605 -0.65898317 132.66618 -27.285082 139.55882
6117605000 -23.106699 -51.303303 -0.66266692 131.56798 -0.65940017 131.57057 -26.882053 164.15685
6126600000 -22.174334 -52.479237 -0.66236359 130.5049 -0.6602807 130.51584 -28.167122 -171.7565
6135595000 -21.591135 -57.727196 -0.66351068 129.47202 -0.66179621 129.47716 -32.007309 -146.45538
6144590000 -21.589476 -63.762959 -0.66608673 128.42795 -0.66492206 128.43686 -43.625992 -101.45329
6153585000 -22.130432 -67.414513 -0.66727257 127.37651 -0.66477031 127.39073 -36.382275 57.4888
6162580000 -22.903772 -66.260796 -0.66833156 126.32229 -0.66685241 126.33425 -29.75728 87.276047
6171575000 -23.23674 -60.361488 -0.67030448 125.23602 -0.66874641 125.24287 -27.066904 112.33087
6180570000 -22.679138 -55.02594 -0.67177606 124.12447 -0.67075127 124.13813 -26.276096 135.99474
6189565000 -21.761885 -54.863003 -0.67266572 123.0459 -0.67187458 123.05568 -27.118809 158.86852
6198560000 -21.117331 -59.075237 -0.67272919 121.99043 -0.67164522 122.00191 -30.241583 -179.00801
6207555000 -20.998356 -64.784081 -0.67388749 120.92981 -0.67233086 120.94265 -39.141392 -155.70436
6216550000 -21.420366 -69.084747 -0.67276549 119.87426 -0.67150199 119.88865 -39.070099 40.454895
6225545000 -22.137793 -69.08181 -0.67254543 118.81476 -0.67137635 118.82956 -30.119076 64.307777
6234540000 -22.5769 -64.267303 -0.67609555 117.71715 -0.67368102 117.72936 -26.748388 86.987175
6243535000 -22.191889 -58.658997 -0.67942542 116.59716 -0.677118 116.60331 -25.516527 109.05279
6252530000 -21.32658 -57.288136 -0.68111753 115.49595 -0.67886943 115.50768 -25.94216 130.05833
6261525000 -20.618679 -60.511269 -0.68285847 114.42507 -0.68088651 114.42911 -28.343538 149.30052
6270520000 -20.398291 -65.87574 -0.6830802 113.34753 -0.68123561 113.36054 -34.68856 162.09492
6279515000 -20.712957 -70.568924 -0.68072391 112.28107 -0.67948747 112.29749 -42.130863 54.033226
6288510000 -21.379797 -71.850716 -0.67947811 111.21265 -0.67823267 111.22583 -30.440416 47.730934
6297505000 -21.887596 -68.239204 -0.68211389 110.10771 -0.68051797 110.11222 -26.287651 65.360954
6306500000 -21.671406 -62.711662 -0.68832046 108.97321 -0.68391126 108.98374 -24.573397 84.716187
6315495000 -20.870621 -60.288052 -0.69042325 107.85765 -0.68836355 107.86428 -24.517189 103.50217
6324490000 -20.108284 -62.488186 -0.69345289 106.74345 -0.6909495 106.75526 -26.18895 120.4573
6333485000 -19.783659 -67.243042 -0.69284981 105.64249 -0.69102418 105.6655 -30.516336 130.52263
6342480000 -19.98374 -71.99514 -0.68931758 104.56824 -0.68787432 104.58027 -38.438766 91.047302
6351475000 -20.578175 -74.084373 -0.68746674 103.48847 -0.68477219 103.4983 -31.090082 39.135979
6360470000 -21.128555 -71.688622 -0.68761563 102.3678 -0.68605077 102.38383 -26.0441 47.548592
6369465000 -21.076349 -66.656563 -0.6917848 101.23236 -0.68993258 101.24944 -23.77809 63.235626
6378460000 -20.380686 -63.566952 -0.69779426 100.10491 -0.69678944 100.12064 -23.184589 79.780769
6387455000 -19.601236 -64.856956 -0.70391375 98.978394 -0.70230645 98.99733 -24.149364 94.90226
6396450000 -19.17375 -69.000671 -0.70522231 97.864136 -0.7031275 97.888931 -26.991135 104.6329
6405445000 -19.258846 -73.661423 -0.70156252 96.773895 -0.69908547 96.787903 -32.124374 92.010117
6414440000 -19.76194 -76.402565 -0.69578755 95.67099 -0.69441384 95.681557 -31.158381 41.416386
6423435000 -20.336227 -75.193443 -0.69422674 94.532967 -0.69309151 94.551155 -25.983152 34.74818
6432430000 -20.430285 -70.908234 -0.69750309 93.389816 -0.69545305 93.403763 -23.146933 45.229912
6441425000 -19.853785 -67.515419 -0.70462519 92.243546 -0.70269477 92.255219 -22.035748 59.052784
6450420000 -19.07868 -67.889145 -0.71213478 91.097229 -0.71051008 91.116714 -22.380835 72.439972
6459415000 -18.575556 -71.366653 -0.71622437 89.968803 -0.71367824 89.984154 -24.219042 82.254402
6468410000 -18.547634 -75.740692 -0.71255898 88.849281 -0.71064699 88.871674 -27.677 79.676781
6477405000 -18.961695 -78.785378 -0.70799047 87.730873 -0.70542908 87.750298 -29.536261 47.808113
6486400000 -19.520758 -78.503296 -0.70408088 86.582542 -0.70100456 86.603081 -25.863234 27.229145
6495395000 -19.732006 -75.154823 -0.70521349 85.423462 -0.70118135 85.44413 -22.695671 30.637886
6504390000 -19.314886 -71.771301 -0.71135408 84.26696 -0.70904118 84.283379 -21.101847 41.161396
6513385000 -18.574411 -71.486519 -0.7224952 83.109535 -0.72038049 83.12542 -20.889599 52.980366
6522380000 -18.004133 -74.320877 -0.72876412 81.962776 -0.72644931 81.983284 -21.983789 62.852707
6531375000 -17.868391 -78.38324 -0.72777319 80.836327 -0.72476178 80.854599 -24.359064 65.351074
6540370000 -18.181635 -81.547897 -0.72326541 79.697563 -0.71986198 79.721146 -26.80331 49.278141
6549365000 -18.715818 -82.135399 -0.71786708 78.532898 -0.71550095 78.543007 -25.434217 24.472952
6558360000 -19.012146 -79.606094 -0.71553725 77.346397 -0.71249127 77.361107 -22.379135 19.399277
6567355000 -18.755363 -76.406319 -0.72202688 76.158546 -0.71818006 76.180595 -20.388702 25.718439
6576350000 -18.089466 -75.681389 -0.73348665 74.984291 -0.72932839 75.004028 -19.679457 35.5252
6585345000 -17.479033 -77.818764 -0.74176878 73.825111 -0.73781979 73.84034 -20.143715 44.967293
6594340000 -17.221867 -81.475151 -0.74358767 72.681442 -0.74038965 72.696655 -21.716902 50.165932
6603335000 -17.406742 -84.714523 -0.73984724 71.525307 -0.73554647 71.547447 -23.887243 43.900276
6612330000 -17.866821 -85.894447 -0.73285103 70.338661 -0.72954184 70.35524 -24.295309 24.112854
6621325000 -18.240326 -84.208046 -0.72788584 69.135353 -0.72456753 69.152184 -22.091503 11.660197
6630320000 -18.153044 -81.28167 -0.7317633 67.927368 -0.72792441 67.942078 -19.922995 12.800981
6639315000 -17.624165 -80.118965 -0.74240267 66.728371 -0.73906434 66.744789 -18.81286 20.044718
6648310000 -17.016066 -81.684151 -0.75321776 65.558685 -0.74955362 65.578323 -18.781849 28.656851
6657305000 -16.66679 -84.986855 -0.75927585 64.40197 -0.75658143 64.427658 -19.753298 35.055279
6666300000 -16.727459 -88.289543 -0.7589469 63.239868 -0.75588328 63.256042 -21.440922 34.286911
6675295000 -17.09716 -89.998192 -0.75253028 62.039284 -0.74921805 62.055302 -22.629709 21.551161
6684290000 -17.474733 -89.076279 -0.7459209 60.811348 -0.74181426 60.828629 -21.572002 6.2343349
6693285000 -17.520266 -86.571472 -0.74803144 59.568649 -0.74254179 59.58849 -19.542456 1.9943997
6702280000 -17.128141 -84.998802 -0.75640857 58.336983 -0.75312138 58.354595 -18.117451 6.1174583
6711275000 -16.554796 -85.925392 -0.76647383 57.143284 -0.76408762 57.161491 -17.660753 13.338791
6720270000 -16.144688 -88.794014 -0.77835608 55.979721 -0.77382362 55.998386 -18.126986 20.152016
6729265000 -16.085533 -92.093124 -0.78201884 54.805191 -0.776829 54.818386 -19.337225 22.574749
6738260000 -16.343992 -94.334473 -0.77511376 53.599339 -0.77245188 53.609028 -20.684898 16.195078
6747255000 -16.708624 -94.295357 -0.76664031 52.350143 -0.76467037 52.359337 -20.688385 2.3674588
6756250000 -16.865549 -92.358574 -0.76570588 51.067863 -0.76186866 51.083557 -19.186518 -6.2631788
6765245000 -16.624115 -90.58316 -0.77087748 49.792969 -0.76824164 49.804276 -17.668665 -5.8881445
6774240000 -16.135294 -90.854958 -0.78202844 48.563282 -0.77912629 48.575214 -16.863188 -0.59729308
6783235000 -15.701755 -93.164085 -0.79578829 47.382736 -0.79260504 47.389713 -16.896519 5.8265681
6792230000 -15.542902 -96.350418 -0.80319816 46.200191 -0.7990703 46.214977 -17.694477 9.9180984
6801225000 -15.692959 -98.945839 -0.80045021 44.993084 -0.79690433 45.004414 -18.907894 7.769434
6810220000 -16.024086 -99.594986 -0.79271752 43.734989 -0.78900534 43.74955 -19.541317 -2.3614354
6819215000 -16.23678 -98.250862 -0.78868783 42.440559 -0.78483546 42.448948 -18.741276 -13.017025
6828210000 -16.125544 -96.387993 -0.79229814 41.125278 -0.78883988 41.136246 -17.315027 -16.316776
6837205000 -15.728565 -96.069443 -0.80304927 39.855938 -0.79807162 39.866367 -16.285168 -13.438696
6846200000 -15.289256 -97.78878 -0.81683165 38.641476 -0.81313908 38.652237 -15.969383 -7.9322205
6855195000 -15.064485 -100.76131 -0.82656211 37.454185 -0.8236832 37.466999 -16.383781 -3.210866
6864190000 -15.116985 -103.64056 -0.82837486 36.248482 -0.82425433 36.256073 -17.330889 -2.6198907
6873185000 -15.383358 -104.97217 -0.82060301 34.988358 -0.81810963 35.004128 -18.226784 -8.8093958
6882180000 -15.63969 -104.36727 -0.8147139 33.666462 -0.81173897 33.680119 -18.107521 -19.042704
6891175000 -15.648041 -102.6642 -0.8163324 32.315804 -0.81182635 32.329422 -17.006153 -25.284126
6900170000 -15.35428 -101.83237 -0.82328743 31.002066 -0.82042509 31.004856 -15.885524 -25.064194
6909165000 -14.943236 -102.89057 -0.8393653 29.742258 -0.8352676 29.754114 -15.298302 -20.978924
6918160000 -14.671725 -105.58716 -0.85134721 28.542349 -0.84853083 28.540634 -15.388034 -16.300547
6927155000 -14.649549 -108.56051 -0.8557353 27.334574 -0.85295612 27.32929 -16.059231 -14.077759
6936150000 -14.858002 -110.49683 -0.85177898 26.078724 -0.84835964 26.081446 -16.969721 -17.034256
6945145000 -15.130037 -110.5773 -0.84420693 24.745365 -0.84205818 24.747524 -17.338306 -25.296095
6954140000 -15.228 -109.22736 -0.84228951 23.35849 -0.83887166 23.35894 -16.697695 -33.119408
6963135000 -15.030111 -108.04138 -0.84893936 21.995007 -0.84502536 21.990919 -15.633087 -35.543522
6972130000 -14.669494 -108.50243 -0.86353683 20.679911 -0.85929483 20.685568 -14.86423 -33.299419
6981125000 -14.37042 -110.72755 -0.87760818 19.431641 -0.87387407 19.435223 -14.67129 -29.224289
6990120000 -14.287728 -113.72441 -0.88472015 18.216032 -0.88153166 18.217937 -15.068473 -26.101398
6999115000 -14.438075 -116.1022 -0.88283712 16.966022 -0.87939703 16.962357 -15.864314 -26.657312
7008110000 -14.696429 -116.91103 -0.87621939 15.626207 -0.87326914 15.625393 -16.503492 -32.346798
7017105000 -14.854096 -116.01251 -0.87075233 14.225531 -0.86790758 14.227328 -16.33482 -40.371471
7026100000 -14.743912 -114.61838 -0.87528008 12.811663 -0.87310523 12.811145 -15.482312 -45.111599
7035095000 -14.432471 -114.51074 -0.88909733 11.437774 -0.88576978 11.44141 -14.621819 -44.96735
7044090000 -14.128367 -116.19707 -0.90461135 10.140428 -0.90150636 10.138002 -14.194741 -41.893967
7053085000 -14.002801 -118.98048 -0.91387612 8.8943844 -0.91067672 8.8976479 -14.332095 -38.554573
7062080000 -14.102183 -121.60921 -0.9140324 7.6339669 -0.91186959 7.6404767 -14.948254 -37.484898
7071075000 -14.345945 -122.98013 -0.9084323 6.3027978 -0.90571171 6.2978969 -15.683231 -40.748665
7080070000 -14.54911 -122.55492 -0.90152639 4.8881521 -0.89761442 4.8831162 -15.923903 -47.769867
7089065000 -14.531173 -121.24477 -0.90504497 3.4359334 -0.90051728 3.4375217 -15.396377 -54.040943
7098060000 -14.288248 -120.65498 -0.91536009 2.0055056 -0.91164607 2.0086122 -14.559057 -56.09502
7107055000 -14.000499 -121.78253 -0.92958939 0.64252275 -0.92731118 0.64721078 -13.969214 -54.439137
7116050000 -13.846329 -124.28611 -0.94104379 -0.64692557 -0.93835181 -0.64552468 -13.880282 -51.349678
7125045000 -13.910556 -126.99553 -0.94418907 -1.9251038 -0.9414984 -1.9247721 -14.294066 -49.248409
7134040000 -14.138539 -128.90717 -0.93872547 -3.2671895 -0.93600124 -3.2643464 -14.991424 -50.430286
7143035000 -14.365406 -129.0988 -0.93172252 -4.6911287 -0.9284817 -4.6829476 -15.498378 -55.742943
7152030000 -14.420699 -128.0441 -0.9319275 -6.1722436 -0.9285984 -6.1639805 -15.328991 -62.566216
7161025000 -14.245563 -127.20268 -0.94092774 -7.655015 -0.93787277 -7.6493797 -14.631556 -66.567062
7170020000 -13.967612 -127.75732 -0.9553147 -9.0833521 -0.95277828 -9.0814495 -13.954247 -66.551865
7179015000 -13.794976 -129.75208 -0.96789783 -10.431649 -0.96393627 -10.427436 -13.67715 -64.174706
7188010000 -13.824791 -132.34579 -0.97131616 -11.758178 -0.96918809 -11.747002 -13.905119 -61.639034
7197005000 -14.046379 -134.42171 -0.96800816 -13.11463 -0.96433288 -13.105021 -14.518031 -61.350967
7206000000 -14.30067 -135.07042 -0.96040589 -14.541779 -0.95729369 -14.533523 -15.170914 -64.845795
7214995000 -14.427535 -134.38084 -0.95832515 -16.035845 -0.95527893 -16.030737 -15.336029 -71.375504
7223990000 -14.316264 -133.3725 -0.96524799 -17.57037 -0.96195239 -17.561451 -14.860068 -76.912125
7232985000 -14.070267 -133.52806 -0.97962606 -19.062201 -0.97630656 -19.057327 -14.166629 -78.617569
7241980000 -13.888103 -135.07571 -0.99233848 -20.480495 -0.98926443 -20.481728 -13.74545 -77.142845
7250975000 -13.901663 -137.47266 -0.99851465 -21.870218 -0.99538022 -21.864988 -13.791047 -74.534637
7259970000 -14.109521 -139.61086 -0.99547559 -23.265142 -0.99078864 -23.260773 -14.292892 -73.119125
7268965000 -14.392903 -140.56497 -0.98763734 -24.705917 -0.98439616 -24.704353 -15.012859 -74.981247
7277960000 -14.589474 -140.13695 -0.98397142 -26.226305 -0.98091072 -26.222689 -15.469797 -80.675079
7286955000 -14.558495 -139.20564 -0.9885636 -27.80006 -0.98540968 -27.798006 -15.273432 -87.276978
7295950000 -14.353306 -138.959 -1.0002182 -29.352623 -0.9977423 -29.34824 -14.648469 -90.765144
7304945000 -14.160191 -139.99811 -1.0137645 -30.856787 -1.0112535 -30.858156 -14.124301 -90.496506
7313940000 -14.150328 -142.01178 -1.0218947 -32.334717 -1.0179501 -32.329201 -14.019448 -88.194237
7322935000 -14.338997 -144.06088 -1.0212319 -33.789444 -1.016928 -33.783253 -14.389985 -86.028435
7331930000 -14.658497 -145.18575 -1.014164 -35.270576 -1.0107572 -35.268307 -15.118567 -86.356445
7340925000 -14.915966 -144.99042 -1.0107983 -36.831356 -1.0059164 -36.81831 -15.803678 -90.863327
7349920000 -14.969151 -143.96423 -1.0111074 -38.437508 -1.0082998 -38.433716 -15.938577 -97.908417
7358915000 -14.816724 -143.33234 -1.0200661 -40.053795 -1.0176526 -40.047649 -15.476317 -103.16973
7367910000 -14.624611 -143.90955 -1.0328914 -41.637241 -1.0297909 -41.63147 -14.90516 -104.40437
7376905000 -14.586548 -145.4861 -1.0422362 -43.190105 -1.0400629 -43.189552 -14.667443 -102.67483
7385900000 -14.753463 -147.20593 -1.0432818 -44.72311 -1.0399747 -44.722561 -14.925078 -100.1552
7394895000 -15.083646 -148.20789 -1.0397656 -46.265244 -1.0352895 -46.264065 -15.639415 -99.385445
7403890000 -15.409835 -147.91101 -1.0349166 -47.868454 -1.031721 -47.872215 -16.517138 -102.6422
7412885000 -15.551627 -146.66052 -1.034639 -49.527489 -1.0312877 -49.527199 -17.005653 -109.74305
7421880000 -15.461769 -145.62744 -1.0418923 -51.201595 -1.0374712 -51.200378 -16.775166 -116.64426
7430875000 -15.296323 -145.61227 -1.0537802 -52.875126 -1.0507289 -52.87207 -16.224493 -119.55819
7439870000 -15.235806 -146.66238 -1.064428 -54.531078 -1.0610497 -54.520645 -15.906954 -118.59354
7448865000 -15.389831 -147.92906 -1.0686717 -56.165756 -1.0643754 -56.158844 -16.107323 -115.86654
7457860000 -15.727917 -148.48509 -1.0678358 -57.797615 -1.062721 -57.801441 -16.863665 -114.22173
7466855000 -16.08687 -147.70688 -1.0646486 -59.483723 -1.0603034 -59.483086 -17.975645 -116.40044
7475850000 -16.273226 -145.93565 -1.0640358 -61.207787 -1.061087 -61.209457 -18.891733 -123.84406
7484845000 -16.208651 -144.23247 -1.0700568 -62.952728 -1.0682168 -62.960056 -18.966139 -133.03697
7493840000 -16.02673 -143.63181 -1.081509 -64.714661 -1.0786934 -64.7164 -18.446693 -138.19676
7502835000 -15.923168 -144.08072 -1.0939528 -66.479462 -1.0910679 -66.473991 -18.058401 -138.19884
7511830000 -16.026114 -144.63808 -1.1019838 -68.223129 -1.0980037 -68.220634 -18.26119 -135.38217
7520825000 -16.310184 -144.37677 -1.1047555 -69.980858 -1.1006888 -69.981941 -19.185738 -132.98352
7529820000 -16.627335 -142.60576 -1.1061698 -71.769676 -1.1025287 -71.777657 -20.772091 -134.53435
7538815000 -16.748402 -139.78503 -1.1098609 -73.592499 -1.1058937 -73.602539 -22.41844 -143.85437
7547810000 -16.610165 -137.30775 -1.118331 -75.438019 -1.1144761 -75.443413 -22.916681 -158.29132
7556805000 -16.338705 -136.13652 -1.1320975 -77.303413 -1.1282238 -77.302238 -22.282099 -167.69917
7565800000 -16.147329 -136.06226 -1.1445862 -79.164925 -1.1429936 -79.159088 -21.794331 -169.24649
7574795000 -16.125549 -135.96638 -1.1567106 -81.03566 -1.1544043 -81.030922 -22.219212 -166.74997
7583790000 -16.245165 -134.87526 -1.1678506 -82.924194 -1.1652147 -82.92794 -23.819246 -165.04948
7592785000 -16.338398 -132.34047 -1.1777123 -84.85482 -1.1745439 -84.859695 -26.770517 -171.40466
7601780000 -16.216587 -129.08325 -1.1895483 -86.803253 -1.1861212 -86.81604 -29.499992 161.3483
7610775000 -15.885437 -126.50963 -1.2051482 -88.771317 -1.2028841 -88.773911 -27.975565 130.1046
7619770000 -15.474892 -125.34926 -1.2262816 -90.75795 -1.2226057 -90.755241 -25.654404 120.27816
7628765000 -15.156837 -125.22316 -1.244697 -92.743828 -1.242422 -92.744041 -24.786444 118.66674
7637760000 -14.981785 -125.15128 -1.2637502 -94.7565 -1.2610296 -94.754623 -25.340487 115.58478
7646755000 -14.875789 -124.18185 -1.2838416 -96.809906 -1.2806088 -96.816818 -26.628038 101.94503
7655750000 -14.691137 -122.20508 -1.3054533 -98.900551 -1.3025876 -98.902245 -26.199265 76.291885
7664745000 -14.323349 -120.06644 -1.3336958 -100.9969 -1.3294865 -101.00475 -23.526875 59.407627
7673740000 -13.82426 -118.69878 -1.365669 -103.10519 -1.3616683 -103.10777 -21.038172 54.545818
7682735000 -13.325529 -118.44878 -1.3992302 -105.22066 -1.394846 -105.21445 -19.502712 54.507145
7691730000 -12.929419 -118.86491 -1.430879 -107.34223 -1.4278049 -107.34309 -18.818754 54.321358
7700725000 -12.646643 -119.26653 -1.4620272 -109.50362 -1.4578974 -109.51079 -18.625849 51.074657
7709720000 -12.412758 -119.14729 -1.496655 -111.72196 -1.492828 -111.72974 -18.354794 43.606537
7718715000 -12.104794 -118.55661 -1.5371656 -113.98251 -1.5346342 -113.98331 -17.493084 34.619209
7727710000 -11.680504 -118.05941 -1.5876472 -116.24796 -1.5833836 -116.24924 -16.161997 28.17886
7736705000 -11.186952 -118.14922 -1.6432829 -118.50355 -1.6400442 -118.4987 -14.868128 25.376263
7745700000 -10.706798 -118.92544 -1.7007375 -120.74354 -1.6964751 -120.74046 -13.942975 24.653702
7754695000 -10.310094 -120.06212 -1.7557439 -123.00254 -1.7506214 -122.99979 -13.411584 23.972601
7763690000 -9.9972858 -121.10566 -1.8074257 -125.30613 -1.8030311 -125.31046 -13.137137 21.658661
7772685000 -9.7184086 -121.78526 -1.8650497 -127.68298 -1.8600962 -127.68233 -12.84635 17.183743
7781680000 -9.4109516 -122.27898 -1.9343281 -130.09583 -1.9277804 -130.10307 -12.304136 11.624089
7790675000 -9.0350237 -122.9007 -2.0142701 -132.51578 -2.0090528 -132.51134 -11.516416 6.9157634
7799670000 -8.6223125 -123.94231 -2.1041551 -134.89211 -2.0988781 -134.88991 -10.694905 4.0482168
7808665000 -8.2275581 -125.43533 -2.1943562 -137.24028 -2.1889658 -137.22466 -10.03785 2.6014163
7817660000 -7.8843851 -127.1006 -2.2796404 -139.58548 -2.2750599 -139.57932 -9.6115408 1.4095687
7826655000 -7.5987206 -128.61719 -2.3626885 -141.99925 -2.3589098 -142.00044 -9.360569 -0.66398436
7835650000 -7.3419065 -129.94342 -2.453563 -144.48956 -2.4482656 -144.49269 -9.1297379 -4.1434932
7844645000 -7.072278 -131.10664 -2.5568445 -147.03731 -2.5530388 -147.03493 -8.7744083 -8.520978
7853640000 -6.7713275 -132.39142 -2.6767962 -149.56335 -2.6734481 -149.55435 -8.2597876 -12.660634
7862635000 -6.4533982 -133.97031 -2.8070307 -152.01288 -2.8035998 -152.00816 -7.6894383 -15.639656
7871630000 -6.1458459 -135.83301 -2.9389846 -154.40775 -2.9349484 -154.39319 -7.1951628 -17.50754
7880625000 -5.8697681 -137.79619 -3.0642238 -156.77092 -3.0606108 -156.77393 -6.8486528 -18.987623
7889620000 -5.6355567 -139.6546 -3.1886883 -159.20656 -3.1848552 -159.20517 -6.6366668 -20.956852
7898615000 -5.4199681 -141.35901 -3.3193314 -161.74016 -3.3136737 -161.74084 -6.465817 -23.922714
7907610000 -5.203897 -142.98152 -3.4647369 -164.33662 -3.4606347 -164.3251 -6.2355433 -27.679688
7916605000 -4.9774337 -144.61481 -3.6275275 -166.89517 -3.6225886 -166.88777 -5.8950796 -31.456709
7925600000 -4.7456164 -146.4413 -3.7988055 -169.3754 -3.7946398 -169.36668 -5.4969082 -34.49213
7934595000 -4.5231819 -148.45102 -3.9728403 -171.73833 -3.967567 -171.73775 -5.1257982 -36.594318
7943590000 -4.3204041 -150.51682 -4.1398778 -174.05951 -4.1345921 -174.05444 -4.8518472 -38.229534
7952585000 -4.1420856 -152.51743 -4.3058519 -176.42259 -4.3013349 -176.43033 -4.6860647 -40.10228
7961580000 -3.978159 -154.42197 -4.4775205 -178.8895 -4.4732542 -178.88144 -4.5704699 -42.718803
7970575000 -3.8177009 -156.24773 -4.6650724 178.58765 -4.6601043 178.60022 -4.4288816 -46.040699
7979570000 -3.6531515 -158.06876 -4.8678102 176.08276 -4.8640847 176.08725 -4.2134809 -49.504566
7988565000 -3.490032 -159.979 -5.0838299 173.66409 -5.078609 173.67455 -3.9377234 -52.456127
7997560000 -3.3350239 -161.99147 -5.2968535 171.37924 -5.2915511 171.37579 -3.6595228 -54.623047
8006555000 -3.1942801 -164.02959 -5.5030036 169.17821 -5.4970388 169.17586 -3.4457712 -56.280682
8015550000 -3.0700395 -166.04791 -5.7016721 166.95804 -5.6965709 166.95422 -3.3162067 -58.008961
8024545000 -2.9536669 -167.98724 -5.906631 164.64189 -5.899744 164.64662 -3.2418425 -60.317696
8033540000 -2.8408623 -169.86073 -6.1242909 162.2522 -6.1188979 162.27568 -3.164346 -63.257893
8042535000 -2.7277145 -171.7054 -6.362812 159.87827 -6.356925 159.88474 -3.0407376 -66.422157
8051530000 -2.616961 -173.58206 -6.6118059 157.57346 -6.6055799 157.57962 -2.8576291 -69.275963
8060525000 -2.5132391 -175.49155 -6.8585711 155.41058 -6.8521218 155.40892 -2.6537971 -71.459167
8069520000 -2.4211643 -177.42714 -7.0950642 153.35461 -7.0883932 153.35509 -2.4843683 -73.091255
8078515000 -2.3373177 -179.35487 -7.3205428 151.31256 -7.3155508 151.30911 -2.3802164 -74.68232
8087510000 -2.2617335 178.75566 -7.547545 149.20253 -7.5418334 149.21732 -2.3299897 -76.673073
8096505000 -2.185921 176.9252 -7.7872872 147.02368 -7.7815442 147.03809 -2.2942529 -79.199722
8105500000 -2.1110244 175.1203 -8.0467529 144.80896 -8.0410395 144.81638 -2.2334094 -82.045761
8114495000 -2.0374987 173.33473 -8.3207045 142.65462 -8.315937 142.66476 -2.1208451 -84.714897
8123490000 -1.9698505 171.53789 -8.5949507 140.62535 -8.5885077 140.63531 -1.9769431 -86.853569
8132485000 -1.9106044 169.73753 -8.8567514 138.70761 -8.8526211 138.71886 -1.8473272 -88.473991
8141480000 -1.8565983 167.93245 -9.1043253 136.85028 -9.0980415 136.86115 -1.7623098 -89.937088
8150475000 -1.8074014 166.14017 -9.3421125 134.93509 -9.3381815 134.95956 -1.7208042 -91.655235
8159470000 -1.759131 164.39235 -9.592308 132.9411 -9.5859795 132.97359 -1.7094423 -93.818649
8168465000 -1.7114713 162.67923 -9.8626871 130.92625 -9.8574162 130.95198 -1.6876627 -96.326294
8177460000 -1.6653159 160.98589 -10.151497 128.94965 -10.147575 128.96555 -1.6262997 -98.794022
8186455000 -1.6215382 159.30754 -10.443932 127.07663 -10.441178 127.09148 -1.5315073 -100.84494
8195450000 -1.5831673 157.62372 -10.728876 125.31168 -10.723997 125.33955 -1.4353791 -102.43157
8204445000 -1.5494183 155.94386 -10.992149 123.6022 -10.987189 123.61829 -1.3632033 -103.82162
8213440000 -1.5180571 154.28119 -11.236975 121.8494 -11.233376 121.88163 -1.3255068 -105.33296
8222435000 -1.4877841 152.64586 -11.49037 120.02835 -11.485214 120.05183 -1.3219508 -107.22321
8231430000 -1.4564868 151.04736 -11.76121 118.17451 -11.754701 118.19057 -1.3218753 -109.44474
8240425000 -1.4288211 149.46825 -12.053575 116.35233 -12.049686 116.37605 -1.2923399 -111.70486
8249420000 -1.4029062 147.897 -12.358775 114.63469 -12.354798 114.64589 -1.2345273 -113.6767
8258415000 -1.3810647 146.3112 -12.658408 113.01679 -12.655709 113.03762 -1.1644605 -115.2365
8267410000 -1.358754 144.72076 -12.934658 111.44663 -12.931166 111.46859 -1.1030473 -116.5498
8276405000 -1.3391083 143.15094 -13.192429 109.83302 -13.186709 109.85837 -1.067656 -117.90891
8285400000 -1.3171831 141.60793 -13.441614 108.1525 -13.438441 108.18977 -1.0651848 -119.54832
8294395000 -1.2982705 140.1115 -13.710064 106.42223 -13.705814 106.4355 -1.0730517 -121.53021
8303390000 -1.2802784 138.62808 -14.002654 104.73708 -14.002399 104.73524 -1.0671701 -123.6068
8312385000 -1.2656951 137.15352 -14.311917 103.15089 -14.310467 103.16401 -1.0361511 -125.4813
8321380000 -1.2527338 135.66385 -14.623466 101.67867 -14.619756 101.69766 -0.98616362 -127.0058
8330375000 -1.2379298 134.16756 -14.907539 100.24516 -14.905795 100.27016 -0.93335569 -128.26414
8339370000 -1.2250552 132.69263 -15.174191 98.763824 -15.170803 98.7995 -0.90016276 -129.48375
8348365000 -1.2100222 131.24895 -15.42757 97.209099 -15.423865 97.21244 -0.89368594 -130.92126
8357360000 -1.1990153 129.83571 -15.694121 95.555321 -15.690814 95.556747 -0.90641075 -132.67931
8366355000 -1.191136 128.44106 -15.979585 93.959419 -15.977785 93.969009 -0.91530097 -134.60352
8375350000 -1.1826946 127.04752 -16.286627 92.455917 -16.286167 92.488731 -0.90472579 -136.43826
8384345000 -1.1754874 125.63424 -16.599726 91.115768 -16.597433 91.124054 -0.87219948 -137.96992
8393340000 -1.1675471 124.21085 -16.895365 89.806091 -16.892723 89.825165 -0.82794696 -139.19069
8402335000 -1.1589329 122.81615 -17.170273 88.452629 -17.164614 88.482254 -0.793715 -140.29231
8411330000 -1.1487718 121.43526 -17.430704 86.977539 -17.42647 87.005363 -0.78468817 -141.57379
8420325000 -1.1402277 120.08425 -17.69425 85.428589 -17.6882 85.430008 -0.79541332 -143.13995
8429320000 -1.1362596 118.75595 -17.980995 83.878502 -17.974287 83.868263 -0.81368166 -144.93855
8438315000 -1.1311083 117.42743 -18.281456 82.446663 -18.281651 82.45314 -0.81752217 -146.70944
8447310000 -1.1272615 116.08662 -18.595804 81.180138 -18.592451 81.200653 -0.7956692 -148.23503
8456305000 -1.1214552 114.74281 -18.897694 80.011299 -18.896656 80.01619 -0.75755304 -149.43147
8465300000 -1.1148409 113.41191 -19.180376 78.779816 -19.176081 78.778252 -0.72311038 -150.44847
8474295000 -1.1071821 112.10184 -19.442963 77.458893 -19.441687 77.42556 -0.70916367 -151.55409
8483290000 -1.1025957 110.80477 -19.711151 75.958832 -19.707588 75.980133 -0.72118241 -152.93428
8492285000 -1.1004444 109.52582 -19.988167 74.484055 -19.986292 74.469666 -0.74584001 -154.6001
8501280000 -1.1000322 108.23412 -20.288282 73.052666 -20.286499 73.052505 -0.7619189 -156.34106
8510275000 -1.0984068 106.9379 -20.596689 71.790497 -20.599194 71.79351 -0.75111634 -157.91107
8519270000 -1.0936015 105.64764 -20.903709 70.662231 -20.901882 70.70295 -0.71916056 -159.13651
8528265000 -1.0877765 104.37469 -21.193579 69.583969 -21.193705 69.595863 -0.68368798 -160.13028
8537260000 -1.080348 103.12109 -21.472404 68.373497 -21.467224 68.381302 -0.66499418 -161.11736
8546255000 -1.0804399 101.89119 -21.740602 66.992607 -21.739861 67.012596 -0.67166942 -162.32597
8555250000 -1.0800273 100.64666 -22.019686 65.556953 -22.015463 65.533287 -0.697173 -163.85808
8564245000 -1.0806311 99.399498 -22.311872 64.153206 -22.317249 64.184929 -0.72133243 -165.54034
8573240000 -1.078338 98.140465 -22.622 62.96455 -22.620327 62.956081 -0.72108155 -167.1268
8582235000 -1.0739828 96.89843 -22.925413 61.889145 -22.922167 61.933689 -0.6943531 -168.39984
8591230000 -1.068535 95.661392 -23.215416 60.882797 -23.213236 60.878426 -0.6592682 -169.36407
8600225000 -1.0618737 94.459862 -23.492147 59.778023 -23.490517 59.793282 -0.63349259 -170.23099
8609220000 -1.0611312 93.261269 -23.765934 58.563061 -23.766338 58.53701 -0.63762844 -171.27495
8618215000 -1.0645875 92.058212 -24.051184 57.168293 -24.044628 57.201126 -0.66334152 -172.6389
8627210000 -1.0636415 90.849586 -24.344128 55.827148 -24.340227 55.813351 -0.69426441 -174.24942
8636205000 -1.0629742 89.63652 -24.647661 54.584705 -24.646292 54.603436 -0.70640057 -175.86632
8645200000 -1.0582011 88.429741 -24.947153 53.505337 -24.9494 53.472446 -0.68892199 -177.2267
8654195000 -1.0538026 87.238174 -25.246964 52.490955 -25.247423 52.527653 -0.65372133 -178.2467
8663190000 -1.0498199 86.074234 -25.531706 51.48494 -25.533152 51.517677 -0.62356377 -179.07623
8672185000 -1.051428 84.913956 -25.815599 50.349453 -25.812252 50.376934 -0.61876363 -179.98492
8681180000 -1.0552727 83.736839 -26.094898 49.075726 -26.096983 49.128338 -0.63992459 178.82866
8690175000 -1.0551229 82.54406 -26.389997 47.748699 -26.39315 47.812401 -0.6727156 177.33818
8699170000 -1.0529194 81.344368 -26.697222 46.50367 -26.679861 46.581043 -0.69214821 175.75107
8708165000 -1.0483658 80.169907 -26.990007 45.392033 -26.988556 45.461575 -0.68592161 174.33807
8717160000 -1.0392222 79.009239 -27.289289 44.405624 -27.280684 44.441372 -0.65753102 173.25133
8726155000 -1.0372205 77.895493 -27.59297 43.468361 -27.589939 43.547863 -0.62470871 172.41769
8735150000 -1.0366443 76.77269 -27.879133 42.472462 -27.868851 42.496044 -0.61199749 171.60931
8744145000 -1.0386781 75.624512 -28.157974 41.38588 -28.162865 41.380436 -0.62624508 170.56354
8753140000 -1.0397383 74.474831 -28.44808 40.150967 -28.451197 40.136391 -0.65807825 169.2103
8762135000 -1.0386685 73.320686 -28.75309 38.879379 -28.751734 38.954617 -0.68653035 167.66225
8771130000 -1.0339981 72.156349 -29.061478 37.696323 -29.063951 37.690228 -0.69155657 166.19374
8780125000 -1.027932 71.037865 -29.363739 36.677235 -29.359135 36.665379 -0.66958898 165.00941
8789120000 -1.0256833 69.945587 -29.662457 35.802303 -29.656815 35.81406 -0.6382643 164.11861
8798115000 -1.0253758 68.837738 -29.94853 34.822392 -29.956282 34.893791 -0.61698943 163.35269
8807110000 -1.0287577 67.722603 -30.246502 33.881435 -30.243553 33.898056 -0.62062067 162.45557
8816105000 -1.0286996 66.577202 -30.530348 32.707504 -30.532248 32.707802 -0.64705253 161.2733
8825100000 -1.0280626 65.440399 -30.824678 31.414944 -30.822046 31.6008 -0.67782474 159.84558
8834095000 -1.0227903 64.310799 -31.140572 30.327847 -31.128233 30.30278 -0.69321936 158.36829
8843090000 -1.0166992 63.213642 -31.456375 29.358931 -31.453598 29.33444 -0.68516499 157.08147
8852085000 -1.0137743 62.131977 -31.760323 28.327782 -31.754574 28.379265 -0.65913683 156.08502
8861080000 -1.0153582 61.045658 -32.06068 27.47645 -32.043049 27.591898 -0.63460749 155.28127
8870075000 -1.0152549 59.927071 -32.351547 26.581581 -32.345982 26.557293 -0.62839043 154.47235
8879070000 -1.0149851 58.814205 -32.650494 25.507357 -32.62112 25.564722 -0.6443103 153.4446
8888065000 -1.0140123 57.707893 -32.937004 24.462961 -32.927048 24.481129 -0.67320281 152.1638
8897060000 -1.0067136 56.616459 -33.232407 23.340998 -33.24403 23.284296 -0.69488072 150.74843
8906055000 -1.0008442 55.546055 -33.541382 22.176378 -33.558979 22.267439 -0.69774228 149.41606
8915050000 -1.0000432 54.502525 -33.859833 21.250141 -33.856407 21.338711 -0.68109661 148.32553
8924045000 -1.0016364 53.438293 -34.175079 20.4636 -34.163334 20.479231 -0.6571753 147.45876
8933040000 -1.0018343 52.340771 -34.46283 19.606808 -34.445824 19.584488 -0.6436522 146.66573
8942035000 -1.0009649 51.253445 -34.734764 18.53598 -34.74823 18.66853 -0.65178025 145.75247
8951030000 -0.99857491 50.158936 -35.017712 17.629133 -35.036057 17.538494 -0.67462397 144.60854
8960025000 -0.99315083 49.081532 -35.344971 16.59374 -35.322269 16.454395 -0.69863367 143.26782
8969020000 -0.98723733 48.042503 -35.642216 15.233562 -35.622261 15.300789 -0.70817417 141.91985
8978015000 -0.9849748 47.002522 -35.979168 14.315771 -35.937023 14.21539 -0.69955194 140.74033
8987010000 -0.98568088 45.937504 -36.26096 13.389344 -36.254421 13.41045 -0.67919445 139.80356
8996005000 -0.98703951 44.86219 -36.572632 12.441243 -36.566551 12.532368 -0.66289431 139.01846
9005000000 -0.98381817 43.767132 -36.863667 11.547231 -36.853672 11.496246 -0.66385752 138.20543
9013995000 -0.9783982 42.690468 -37.155224 10.528075 -37.156487 10.567867 -0.68097067 137.19975
9022990000 -0.97361529 41.63459 -37.435188 9.6041718 -37.437634 9.5825176 -0.70602775 135.96429
9031985000 -0.96839732 40.595482 -37.763699 8.5699968 -37.776466 8.3998919 -0.72175241 134.62515
9040980000 -0.96772575 39.570164 -38.091473 7.5626612 -38.084778 7.5355291 -0.71807593 133.36415
9049975000 -0.96825272 38.52 -38.407063 6.429285 -38.411697 6.7695642 -0.70105267 132.32326
9058970000 -0.96731627 37.453915 -38.677055 5.6627388 -38.710278 5.6719155 -0.68147427 131.49071
9067965000 -0.96460825 36.384579 -38.99205 4.799789 -38.981277 4.729485 -0.67730373 130.73776
9076960000 -0.959548 35.32169 -39.269478 3.7287731 -39.261169 3.8966174 -0.69023299 129.853
9085955000 -0.95108813 34.275387 -39.561916 2.8706982 -39.574745 2.8915865 -0.71523941 128.73662
9094950000 -0.9493565 33.268055 -39.893974 1.8659385 -39.917126 1.8223317 -0.7354207 127.427
9103945000 -0.94715095 32.258881 -40.196323 0.8104046 -40.210838 0.89043528 -0.73716855 126.10379
9112940000 -0.94749928 31.207376 -40.538692 -0.16330649 -40.533611 0.056076888 -0.72164237 124.97032
9121935000 -0.94596153 30.172966 -40.800438 -0.76580703 -40.809361 -0.94399798 -0.69804263 124.06996
9130930000 -0.94275314 29.124992 -41.128231 -1.6247089 -41.116375 -1.7799988 -0.68696094 123.3561
9139925000 -0.93678582 28.089956 -41.431587 -2.827843 -41.432407 -2.5708535 -0.6980682 122.5943
9148920000 -0.93032211 27.072191 -41.730015 -3.5236373 -41.716736 -3.5071104 -0.72367758 121.63611
9157915000 -0.92936587 26.072924 -42.01696 -4.5112171 -42.038021 -4.544085 -0.74833131 120.41167
9166910000 -0.92946017 25.056965 -42.367558 -5.6665101 -42.343918 -5.4838748 -0.75564486 119.06815
9175905000 -0.93181556 24.019577 -42.67181 -6.2363839 -42.726402 -6.6153936 -0.74163955 117.81709
9184900000 -0.93073165 22.97027 -43.000813 -7.3759675 -42.992794 -7.2126455 -0.71869659 116.82462
9193895000 -0.92689329 21.921299 -43.320148 -8.1726122 -43.295372 -8.1731319 -0.70213026 116.0517
9202890000 -0.92131597 20.888405 -43.645634 -8.8844547 -43.612751 -9.1226635 -0.70731229 115.35921
9211885000 -0.91568196 19.883911 -43.920612 -9.3850517 -43.937302 -9.3771687 -0.73250663 114.51723
9220880000 -0.91391701 18.906963 -44.296719 -10.496833 -44.299458 -9.9939871 -0.76082081 113.41776
9229875000 -0.91418827 17.916653 -44.506088 -11.252446 -44.550697 -11.232159 -0.77231765 112.10036
9238870000 -0.91528147 16.921904 -44.924026 -11.968502 -44.866096 -12.05746 -0.76096731 110.79821
9247865000 -0.91431642 15.905705 -45.259846 -12.339276 -45.247643 -12.643006 -0.73497832 109.7066
9256860000 -0.9125163 14.889237 -45.549557 -13.227357 -45.509216 -13.408026 -0.71425921 108.87643
9265855000 -0.90598243 13.879993 -45.856377 -13.696803 -45.871471 -13.852327 -0.71631014 108.20428
9274850000 -0.90314126 12.894942 -46.161476 -14.046953 -46.185806 -14.001116 -0.74195242 107.46503
9283845000 -0.90330702 11.930942 -46.453167 -14.491182 -46.490173 -14.350634 -0.77418464 106.4544
9292840000 -0.90407544 10.949375 -46.7351 -14.87235 -46.794067 -14.814952 -0.7909084 105.18202
9301835000 -0.90457278 9.9619246 -47.018845 -15.185982 -47.059952 -15.112478 -0.78144145 103.85076
9310830000 -0.90642571 8.9725294 -47.317753 -15.534096 -47.33252 -15.307041 -0.75353211 102.67231
9319825000 -0.90482497 7.9727373 -47.568523 -15.755966 -47.590549 -15.445298 -0.72677577 101.77835
9328820000 -0.90086412 6.9935384 -47.842148 -15.791433 -47.848164 -15.680769 -0.72090429 101.11093
9337815000 -0.89628989 6.0386567 -48.057285 -15.513127 -48.07283 -15.391616 -0.74710715 100.46719
9346810000 -0.89504623 5.0840664 -48.241295 -15.41149 -48.271187 -15.301412 -0.78466213 99.594002
9355805000 -0.89388436 4.1265802 -48.421951 -15.389194 -48.453655 -15.306997 -0.80987823 98.427475
9364800000 -0.89203328 3.1683347 -48.601372 -15.372183 -48.625111 -15.299932 -0.80601114 97.086998
9373795000 -0.8905862 2.2062061 -48.750626 -15.269327 -48.756878 -15.169626 -0.77865213 95.803482
9382790000 -0.88563424 1.2369617 -48.859913 -15.252883 -48.887699 -15.023616 -0.74501884 94.760956
9391785000 -0.87873304 0.27701944 -49.002674 -15.171633 -49.001022 -15.017565 -0.73055822 94.020897
9400780000 -0.87442744 -0.67157781 -49.075912 -14.860868 -49.071396 -14.731118 -0.74934107 93.420395
9409775000 -0.87136132 -1.6120526 -49.144009 -14.772313 -49.162743 -14.687054 -0.78631538 92.681175
9418770000 -0.86865908 -2.5778024 -49.163544 -14.552801 -49.207493 -14.438167 -0.81835121 91.661316
9427765000 -0.86677283 -3.5333357 -49.168285 -14.683462 -49.214703 -14.544753 -0.82689625 90.405197
9436760000 -0.86328202 -4.4894581 -49.190639 -15.013202 -49.235485 -14.731501 -0.80377746 89.068306
9445755000 -0.85823202 -5.4580932 -49.219921 -15.255464 -49.231144 -14.798414 -0.76595473 87.900757
9454750000 -0.85383201 -6.4042773 -49.198982 -15.239155 -49.219494 -14.918963 -0.744986 87.039871
9463745000 -0.85076684 -7.3456535 -49.170818 -15.583673 -49.217495 -15.04623 -0.75368851 86.387894
9472740000 -0.85021204 -8.2975864 -49.152622 -15.618908 -49.186935 -14.87996 -0.78540742 85.73243
9481735000 -0.84741372 -9.250493 -49.071274 -15.567125 -49.083893 -14.962102 -0.82306403 84.862244
9490730000 -0.84476751 -10.187822 -48.900967 -15.929395 -48.901665 -15.225098 -0.83906728 83.715172
9499725000 -0.84021586 -11.121319 -48.713989 -16.62505 -48.691746 -16.051975 -0.82398301 82.414299
9508720000 -0.83460534 -12.038013 -48.506439 -17.896189 -48.499393 -17.381544 -0.78858596 81.176903
9517715000 -0.82955414 -12.942706 -48.337456 -19.520557 -48.312885 -18.998838 -0.75772536 80.186363
9526710000 -0.82536393 -13.854314 -48.197582 -21.1182 -48.169491 -20.514669 -0.75386709 79.46283
9535705000 -0.82157093 -14.781098 -48.052422 -22.681091 -48.048351 -22.271116 -0.78085673 78.84758
9544700000 -0.81805778 -15.722025 -47.909439 -24.418396 -47.927929 -23.933947 -0.81788558 78.134644
9553695000 -0.81197047 -16.662066 -47.756714 -26.139751 -47.767418 -25.487299 -0.84693867 77.160339
9562690000 -0.80308914 -17.586481 -47.587612 -28.174759 -47.568592 -27.483648 -0.84479457 75.920082
9571685000 -0.79402697 -18.495926 -47.462357 -30.360481 -47.429981 -29.750999 -0.81399447 74.615311
9580680000 -0.78486496 -19.387199 -47.346928 -32.574974 -47.316719 -32.098465 -0.77985913 73.484077
9589675000 -0.77849758 -20.275599 -47.26107 -34.838104 -47.218937 -34.343666 -0.76420367 72.617851
9598670000 -0.77442068 -21.195173 -47.182659 -37.247452 -47.162106 -36.607956 -0.77630371 71.936966
9607665000 -0.76895595 -22.13685 -47.137115 -39.27026 -47.135315 -38.741337 -0.80919546 71.29805
9616660000 -0.76216233 -23.09494 -47.137802 -41.064087 -47.109303 -40.470558 -0.84050423 70.456352
9625655000 -0.75329685 -24.045263 -47.110947 -42.596539 -47.051716 -42.246998 -0.85141206 69.340027
9634650000 -0.74261332 -24.971466 -47.060829 -44.456074 -47.0201 -44.283333 -0.83255947 68.02906
9643645000 -0.7334643 -25.875151 -47.055901 -46.301704 -47.011936 -46.116333 -0.79753661 66.789284
9652640000 -0.72603226 -26.772676 -47.070213 -48.009899 -47.041557 -47.873013 -0.77107966 65.773026
9661635000 -0.72169065 -27.679722 -47.033337 -49.503578 -47.015221 -49.30521 -0.76635557 65.034508
9670630000 -0.716631 -28.607206 -47.027195 -51.092331 -47.016243 -50.96212 -0.78692132 64.442429
9679625000 -0.71035796 -29.536985 -47.042397 -52.493717 -47.017941 -52.409035 -0.82066083 63.783981
9688620000 -0.7030344 -30.473951 -47.059734 -53.9552 -47.02346 -53.943768 -0.84460056 62.844273
9697615000 -0.69492656 -31.397539 -47.051407 -55.549019 -47.029636 -55.55175 -0.84266412 61.611095
9706610000 -0.68732876 -32.292931 -47.051556 -57.122154 -47.034313 -56.95211 -0.81893039 60.278168
9715605000 -0.68114841 -33.190109 -47.059429 -58.724396 -47.053276 -58.57806 -0.78653288 59.088253
9724600000 -0.67624253 -34.097778 -47.060116 -60.320835 -47.053432 -60.072533 -0.76578802 58.198677
9733595000 -0.67257565 -35.023102 -47.092934 -61.947884 -47.082569 -61.720116 -0.7692588 57.577087
9742590000 -0.66737032 -35.956295 -47.122345 -63.193199 -47.117588 -62.92038 -0.7918843 57.024975
9751585000 -0.66172838 -36.89135 -47.118103 -64.341446 -47.090454 -63.971817 -0.82400149 56.265602
9760580000 -0.65376043 -37.806923 -47.087971 -65.226036 -47.030342 -65.105309 -0.8378424 55.164394
9769575000 -0.64569712 -38.71386 -47.001041 -66.410934 -46.940895 -66.563866 -0.83091611 53.817902
9778570000 -0.64046842 -39.602108 -46.918808 -67.89743 -46.90588 -68.119659 -0.80443573 52.479904
9787565000 -0.63444632 -40.494938 -46.863079 -69.585907 -46.87468 -69.717583 -0.77517939 51.39893
9796560000 -0.63021415 -41.392109 -46.814384 -71.060158 -46.833778 -71.322411 -0.75717956 50.670067
9805555000 -0.62713891 -42.303745 -46.803253 -72.49437 -46.8153 -72.655884 -0.76496857 50.139103
9814550000 -0.62345797 -43.215 -46.820816 -73.616173 -46.837807 -73.721336 -0.79013395 49.536152
9823545000 -0.61828965 -44.12957 -46.785023 -74.405151 -46.790375 -74.613487 -0.81675506 48.63554
9832540000 -0.61324167 -45.033981 -46.763634 -75.344063 -46.754398 -75.430679 -0.8301658 47.3941
9841535000 -0.60595196 -45.920868 -46.712635 -76.367836 -46.752007 -76.42379 -0.81662452 46.000885
9850530000 -0.60081393 -46.805607 -46.710972 -77.383553 -46.746792 -77.417885 -0.78665137 44.76297
9859525000 -0.59695029 -47.686619 -46.672104 -78.036537 -46.696636 -77.969177 -0.75977719 43.866455
9868520000 -0.593077 -48.577057 -46.598156 -78.805077 -46.629669 -78.711639 -0.7514087 43.264828
9877515000 -0.5910567 -49.471886 -46.519764 -79.64695 -46.537735 -79.515297 -0.76443148 42.741745
9886510000 -0.58743674 -50.370831 -46.475376 -80.600159 -46.476002 -80.600014 -0.7926212 42.022343
9895505000 -0.58150369 -51.265087 -46.453495 -81.641594 -46.456978 -81.437416 -0.81755716 40.939346
9904500000 -0.57640129 -52.150616 -46.439793 -82.512566 -46.467785 -82.331596 -0.82002956 39.59383
9913495000 -0.57067102 -53.016491 -46.404179 -83.30394 -46.468418 -83.076935 -0.80000824 38.262196
9922490000 -0.56743968 -53.880352 -46.338696 -84.179703 -46.430645 -83.79438 -0.77191442 37.186375
9931485000 -0.56429559 -54.747612 -46.325245 -85.266083 -46.355011 -84.355194 -0.75231296 36.427673
9940480000 -0.56049556 -55.623199 -46.272766 -86.084198 -46.268726 -85.29351 -0.75045812 35.862122
9949475000 -0.5584718 -56.511238 -46.21043 -86.82148 -46.213661 -86.183098 -0.77202731 35.227108
9958470000 -0.5535816 -57.395748 -46.156361 -87.869194 -46.168736 -87.296432 -0.79817241 34.271328
9967465000 -0.54749286 -58.274368 -46.139 -88.904732 -46.166771 -88.091133 -0.8113963 33.029732
9976460000 -0.54087663 -59.132389 -46.121059 -89.621696 -46.138824 -88.793465 -0.80016911 31.715588
9985455000 -0.53722852 -59.976841 -46.077568 -90.389763 -46.104984 -89.510536 -0.77543807 30.556955
9994450000 -0.53520823 -60.818081 -46.053299 -91.076126 -46.07159 -90.151489 -0.75005108 29.671343
10003445000 -0.53480768 -61.679756 -46.014088 -91.725883 -46.007446 -90.845459 -0.74471372 29.024008
10012440000 -0.53362006 -62.581329 -45.981567 -92.149574 -45.958527 -91.254723 -0.75970477 28.417189
10021435000 -0.53053457 -63.474682 -45.921406 -92.461922 -45.879265 -91.493683 -0.78124374 27.580809
10030430000 -0.5242908 -64.357956 -45.814945 -92.647156 -45.750614 -91.898193 -0.79683775 26.502823
10039425000 -0.51752084 -65.220284 -45.741913 -93.306511 -45.661022 -92.766373 -0.79763305 25.256121
10048420000 -0.51237798 -66.054955 -45.683765 -93.558151 -45.599121 -93.406319 -0.77980155 24.051062
10057415000 -0.50771135 -66.862595 -45.597507 -93.990898 -45.542107 -93.753555 -0.75922287 23.05337
10066410000 -0.50872606 -67.677261 -45.515678 -94.47863 -45.450062 -94.406586 -0.74857765 22.32151
10075405000 -0.50842977 -68.53389 -45.409954 -94.985123 -45.385666 -94.960999 -0.75474417 21.657547
10084400000 -0.50658578 -69.394173 -45.327679 -95.263634 -45.316158 -95.312843 -0.7728709 20.895411
10093395000 -0.50235194 -70.259865 -45.219307 -95.73925 -45.237358 -95.553871 -0.78965795 19.909363
10102390000 -0.49769577 -71.112289 -45.128345 -96.115868 -45.119328 -95.865181 -0.79313076 18.764238
10111385000 -0.49196255 -71.945877 -45.056175 -96.272003 -45.001865 -95.998589 -0.78454709 17.563463
10120380000 -0.48869765 -72.754692 -44.957462 -96.434998 -44.862049 -96.427795 -0.7673192 16.47538
10129375000 -0.48884743 -73.567589 -44.835079 -96.774605 -44.740017 -97.040504 -0.75452954 15.614834
10138370000 -0.49002638 -74.415627 -44.707909 -96.986809 -44.62685 -97.582382 -0.75729293 14.878495
10147365000 -0.49018142 -75.274063 -44.559216 -97.222466 -44.516319 -97.924484 -0.76857716 14.142026
10156360000 -0.48655042 -76.119598 -44.357731 -97.322617 -44.372059 -98.11467 -0.78178114 13.28755
10165355000 -0.48252237 -76.961555 -44.147465 -97.604218 -44.201981 -98.459831 -0.78792673 12.274142
10174350000 -0.47799578 -77.775993 -43.929672 -97.985748 -44.007038 -98.764854 -0.78211987 11.14212
10183345000 -0.47739041 -78.562889 -43.717876 -98.608902 -43.845631 -99.332947 -0.77095783 10.050937
10192340000 -0.47927818 -79.362534 -43.512203 -99.254219 -43.659409 -99.703117 -0.76120019 9.0797615
10201335000 -0.48114794 -80.202057 -43.313049 -100.04503 -43.462589 -100.24708 -0.76059008 8.2213879
10210330000 -0.48021108 -81.056412 -43.121414 -100.8021 -43.266296 -100.71559 -0.76719534 7.4203038
10219325000 -0.47823969 -81.896164 -42.903507 -101.36197 -43.049187 -101.02721 -0.776227 6.5849457
10228320000 -0.47346583 -82.706932 -42.665176 -101.97988 -42.790573 -101.52809 -0.78194726 5.6579127
10237315000 -0.46808738 -83.484779 -42.41127 -102.76573 -42.50399 -102.16593 -0.77933222 4.6162624
10246310000 -0.46573043 -84.244682 -42.171173 -103.81872 -42.225208 -103.20808 -0.76890099 3.5583382
10255305000 -0.46717206 -85.021347 -41.921581 -104.94829 -41.960518 -104.49902 -0.76177239 2.5768743
10264300000 -0.46969101 -85.828751 -41.699421 -106.20788 -41.703022 -105.71107 -0.76205128 1.6654381
10273295000 -0.46549758 -86.633713 -41.463188 -107.61709 -41.473904 -107.25138 -0.76901126 0.8193357
10282290000 -0.45946166 -87.441582 -41.224411 -108.95622 -41.268673 -108.68441 -0.77853721 -0.023373861
10291285000 -0.4540821 -88.235573 -40.968636 -110.46133 -41.022678 -110.40781 -0.78477532 -0.9400633
10300280000 -0.44945127 -88.992867 -40.752941 -112.28482 -40.78503 -111.97878 -0.77893955 -1.9353828
10309275000 -0.44746882 -89.743187 -40.581673 -113.78123 -40.587135 -113.76808 -0.76828825 -2.9684486
10318270000 -0.44788638 -90.518684 -40.371925 -115.5583 -40.440601 -115.48907 -0.75701469 -3.9743092
10327265000 -0.44491771 -91.299454 -40.262543 -117.5692 -40.301968 -117.3587 -0.75134742 -4.9269276
10336260000 -0.43944958 -92.100594 -40.095165 -119.6682 -40.147453 -119.26772 -0.75732625 -5.7928314
10345255000 -0.43153888 -92.886993 -39.97654 -121.49568 -40.033085 -121.20152 -0.77008647 -6.6471081
10354250000 -0.42387202 -93.679298 -39.867428 -123.17965 -39.923199 -123.0363 -0.77830434 -7.529078
10363245000 -0.41908938 -94.437096 -39.720142 -124.99776 -39.77095 -124.57134 -0.77668321 -8.4785299
10372240000 -0.41757044 -95.198395 -39.655201 -126.68568 -39.673073 -126.71002 -0.76363635 -9.4641085
10381235000 -0.41561389 -95.998909 -39.554882 -128.62119 -39.599934 -128.33911 -0.74740046 -10.441092
10390230000 -0.40838712 -96.797417 -39.507 -130.48198 -39.501972 -129.8714 -0.73775262 -11.38884
10399225000 -0.40000051 -97.56707 -39.420349 -132.38454 -39.43222 -131.87363 -0.74192572 -12.267618
10408220000 -0.39120319 -98.342339 -39.399075 -133.90573 -39.396835 -133.38588 -0.75817132 -13.128668
10417215000 -0.38761184 -99.125534 -39.327755 -135.68758 -39.2957 -135.2652 -0.77350497 -14.028887
10426210000 -0.38419336 -99.887848 -39.262142 -137.61285 -39.281315 -137.10748 -0.77749711 -14.980541
10435205000 -0.38347143 -100.69687 -39.246723 -139.142 -39.219738 -138.73627 -0.76502693 -15.965326
10444200000 -0.38054222 -101.49393 -39.254215 -140.37132 -39.232388 -140.30301 -0.74481022 -16.966785
10453195000 -0.37537238 -102.28674 -39.222706 -141.9272 -39.217712 -141.79973 -0.72710782 -17.921873
10462190000 -0.36628142 -103.04214 -39.209888 -143.44888 -39.167645 -143.05409 -0.72689694 -18.812439
10471185000 -0.36148074 -103.80338 -39.128166 -144.88878 -39.116043 -144.8517 -0.74679482 -19.674562
10480180000 -0.35755321 -104.56973 -39.137428 -146.47964 -39.108879 -146.214 -0.77071363 -20.579126
10489175000 -0.35645717 -105.32951 -39.163574 -147.70676 -39.127758 -147.8903 -0.78480446 -21.523642
10498170000 -0.3569065 -106.12784 -39.092457 -149.07832 -39.086979 -149.05139 -0.77642691 -22.5028
10507165000 -0.35430381 -106.93837 -39.099464 -150.19786 -39.063297 -149.98499 -0.74835128 -23.490692
10516160000 -0.34748054 -107.71785 -39.047028 -151.1441 -39.03204 -151.30476 -0.71903348 -24.422264
10525155000 -0.34131059 -108.46158 -38.990658 -152.45398 -38.978107 -152.71744 -0.71103114 -25.27593
10534150000 -0.33692035 -109.2054 -38.96212 -154.07431 -39.009926 -153.90425 -0.72934246 -26.113615
10543145000 -0.33377805 -109.94584 -38.969528 -155.18279 -38.934311 -155.34119 -0.76351416 -27.002527
10552140000 -0.33345601 -110.69917 -38.945484 -156.3412 -38.928207 -156.20189 -0.79161471 -27.965481
10561135000 -0.33488628 -111.4838 -38.911739 -157.61014 -38.948662 -157.60545 -0.79289305 -28.981234
10570130000 -0.33174291 -112.28857 -38.853497 -158.73068 -38.883381 -158.79764 -0.76460707 -30.009853
10579125000 -0.32758927 -113.05474 -38.851688 -159.87334 -38.834274 -160.09198 -0.72371733 -30.963163
10588120000 -0.32349509 -113.79847 -38.852989 -161.32626 -38.826801 -161.24129 -0.69979888 -31.799507
10597115000 -0.31912756 -114.54538 -38.8316 -162.6312 -38.840816 -162.18512 -0.71069211 -32.591705
10606110000 -0.31615204 -115.2627 -38.791389 -163.41275 -38.800575 -163.74092 -0.74590456 -33.438873
10615105000 -0.3170642 -116.00135 -38.783562 -164.66832 -38.798031 -164.64728 -0.78688222 -34.361538
10624100000 -0.31892669 -116.76964 -38.753357 -165.57553 -38.774303 -165.59804 -0.80633056 -35.401134
10633095000 -0.31643796 -117.55637 -38.6884 -166.84355 -38.735142 -166.87473 -0.78539437 -36.468281
10642090000 -0.31224912 -118.32878 -38.643394 -168.2211 -38.670681 -167.83405 -0.7384758 -37.467751
10651085000 -0.30809602 -119.0641 -38.581886 -169.00653 -38.608196 -168.93422 -0.69672531 -38.31583
10660080000 -0.30192789 -119.78822 -38.550888 -170.49203 -38.61665 -170.32301 -0.68855584 -39.070808
10669075000 -0.30052954 -120.45869 -38.545227 -171.69423 -38.569969 -171.35457 -0.71946543 -39.80098
10678070000 -0.30249402 -121.16896 -38.512348 -172.75203 -38.53698 -172.58153 -0.77161634 -40.636868
10687065000 -0.30759057 -121.92515 -38.490849 -173.88525 -38.514343 -173.79564 -0.81009156 -41.618778
10696060000 -0.30735579 -122.70761 -38.414871 -174.86998 -38.435795 -174.57326 -0.81045842 -42.730293
10705055000 -0.3051025 -123.47888 -38.363304 -176.04224 -38.392624 -175.73479 -0.7677958 -43.82011
10714050000 -0.30286205 -124.22643 -38.320332 -177.1293 -38.308563 -176.84225 -0.71476483 -44.787498
10723045000 -0.29594365 -124.95247 -38.216759 -178.20314 -38.235184 -177.996 -0.68402642 -45.59779
10732040000 -0.2929092 -125.64369 -38.187164 -179.47905 -38.17968 -179.16771 -0.69819224 -46.319462
10741035000 -0.29348275 -126.32905 -38.168949 179.46025 -38.139404 179.67775 -0.74730146 -47.064266
10750030000 -0.29712349 -127.06738 -38.127884 178.20126 -38.094639 178.81712 -0.80106151 -47.962139
10759025000 -0.29872844 -127.81945 -38.035526 177.22348 -38.030899 177.57181 -0.82199162 -49.023132
10768020000 -0.29646355 -128.5583 -37.996861 176.05005 -37.992649 176.41574 -0.79471701 -50.151005
10777015000 -0.29376662 -129.30553 -37.913219 175.06828 -37.885788 175.17111 -0.73941571 -51.197659
10786010000 -0.28930905 -130.03061 -37.833748 173.65338 -37.809063 173.845 -0.69002849 -52.064278
10795005000 -0.28636441 -130.71159 -37.80431 172.3613 -37.785534 172.59663 -0.68131739 -52.77116
10804000000 -0.28713259 -131.40466 -37.781204 171.0117 -37.745174 171.50612 -0.72028762 -53.424126
10812995000 -0.29058921 -132.13112 -37.70575 169.87767 -37.688057 170.28137 -0.78062248 -54.201004
10821990000 -0.29056126 -132.85486 -37.675446 168.68423 -37.634586 169.16748 -0.82535893 -55.17627
10830985000 -0.28941503 -133.57225 -37.58287 167.38503 -37.551865 168.09023 -0.82377428 -56.325871
10839980000 -0.28841266 -134.2984 -37.451046 166.4442 -37.426472 166.7056 -0.77718008 -57.473797
10848975000 -0.28461367 -135.01706 -37.368114 164.87411 -37.315987 165.26022 -0.71571279 -58.480053
10857970000 -0.28520933 -135.69446 -37.319862 163.47829 -37.288673 163.64293 -0.68101335 -59.258095
10866965000 -0.28741911 -136.4118 -37.240253 161.97803 -37.192802 162.21495 -0.69655877 -59.882133
10875960000 -0.28959903 -137.13725 -37.182434 160.52968 -37.14003 160.86609 -0.75195652 -60.529419
10884955000 -0.29043975 -137.84143 -37.112949 159.36601 -37.053944 159.52954 -0.81113392 -61.370144
10893950000 -0.29029861 -138.55597 -37.031536 157.96562 -36.966141 158.1156 -0.83801758 -62.435478
10902945000 -0.29023802 -139.28194 -36.908077 156.55774 -36.870235 156.56895 -0.81361824 -63.643314
10911940000 -0.28672525 -139.96967 -36.803051 155.16818 -36.767548 155.11461 -0.75419599 -64.783287
10920935000 -0.28915855 -140.63869 -36.772034 153.506 -36.692532 153.53452 -0.70093763 -65.678268
10929930000 -0.29408792 -141.34935 -36.681686 152.12776 -36.603092 152.22346 -0.68885559 -66.344131
10938925000 -0.29535675 -142.05162 -36.548576 150.68675 -36.516628 150.55899 -0.72795165 -66.888809
10947920000 -0.29506361 -142.75462 -36.464382 149.12303 -36.429554 148.78372 -0.79266256 -67.56279
10956915000 -0.29875171 -143.46106 -36.385025 147.34605 -36.360493 147.19319 -0.84337097 -68.503036
10965910000 -0.29751682 -144.15741 -36.288387 145.76823 -36.252132 145.56464 -0.84811795 -69.688774
10974905000 -0.29650095 -144.80789 -36.180164 143.81203 -36.134869 143.53159 -0.80499399 -70.927429
10983900000 -0.3001703 -145.46866 -36.0574 141.70435 -36.032864 141.65836 -0.74370843 -71.989021
10992895000 -0.3059268 -146.15479 -35.99049 139.50565 -35.938831 139.56761 -0.70604146 -72.753609
11001890000 -0.30916047 -146.85229 -35.923946 137.60469 -35.897018 137.30995 -0.72003311 -73.293839
11010885000 -0.31307033 -147.52959 -35.839317 135.43178 -35.811771 135.22975 -0.77898443 -73.823189
11019880000 -0.31661505 -148.2075 -35.788799 133.21269 -35.766548 133.00899 -0.84678167 -74.582336
11028875000 -0.3159357 -148.88185 -35.736092 130.95416 -35.703449 130.76823 -0.88168168 -75.65654
11037870000 -0.31743595 -149.50465 -35.658573 128.54124 -35.619999 128.26202 -0.86185712 -76.922768
11046865000 -0.32662243 -150.14738 -35.622448 125.92329 -35.562321 125.70693 -0.80322963 -78.104492
11055860000 -0.33312482 -150.83199 -35.565796 123.05566 -35.559036 123.01701 -0.74566638 -78.995644
11064855000 -0.3368907 -151.51007 -35.573647 120.35612 -35.562637 120.39703 -0.73230284 -79.555107
11073850000 -0.33858681 -152.16136 -35.610722 117.84068 -35.593487 117.7225 -0.77291948 -79.987892
11082845000 -0.34135261 -152.81758 -35.637695 115.52227 -35.610912 115.3469 -0.84716296 -80.555229
11091840000 -0.34021807 -153.45593 -35.689575 112.90071 -35.646416 112.76223 -0.90782291 -81.458641
11100835000 -0.34288546 -154.06996 -35.682175 110.0778 -35.681046 109.8832 -0.91648263 -82.679451
11109830000 -0.35025901 -154.68925 -35.785282 107.25024 -35.773544 107.19715 -0.868384 -83.953278
11118825000 -0.35497317 -155.35455 -35.894291 104.43115 -35.870705 104.30837 -0.79746383 -84.990677
11127820000 -0.35361743 -155.99223 -36.032269 101.73177 -36.021786 101.54954 -0.7528671 -85.655098
11136815000 -0.35221806 -156.61301 -36.217731 99.149467 -36.187405 99.027878 -0.76479602 -86.055115
11145810000 -0.3507776 -157.24554 -36.392944 96.883827 -36.391201 96.882011 -0.82775748 -86.44809
11154805000 -0.34891319 -157.82579 -36.568111 94.739471 -36.58009 94.743729 -0.90004367 -87.140892
11163800000 -0.3505691 -158.41644 -36.760036 92.820511 -36.72963 92.606606 -0.93490088 -88.20771
11172795000 -0.35760239 -159.05783 -36.897419 90.511269 -36.895008 90.185867 -0.90714818 -89.507683
11181790000 -0.35778764 -159.72867 -37.08979 88.244537 -37.095364 88.043976 -0.83677047 -90.708092
11190785000 -0.35316336 -160.36548 -37.299232 85.926804 -37.293213 85.907661 -0.76983732 -91.543266
11199780000 -0.34957805 -160.98444 -37.523651 84.184151 -37.518982 84.026993 -0.74860162 -92.026367
11208775000 -0.34418461 -161.60477 -37.695507 82.317245 -37.771721 82.337273 -0.78778213 -92.357338
11217770000 -0.3406271 -162.18745 -37.941425 81.290329 -37.951038 80.771935 -0.86099917 -92.865295
11226765000 -0.34391001 -162.7924 -38.066841 79.558357 -38.125858 79.470558 -0.91912621 -93.772644
11235760000 -0.34717461 -163.4536 -38.243061 78.111259 -38.252869 78.07106 -0.92159057 -95.048294
11244755000 -0.34734061 -164.14517 -38.358078 76.268791 -38.391468 76.343376 -0.86622328 -96.375961
11253750000 -0.342309 -164.77962 -38.503094 74.585381 -38.549995 74.570763 -0.78850096 -97.443909
11262745000 -0.34028471 -165.40033 -38.647648 72.889488 -38.657673 73.053757 -0.74051368 -98.095543
11271740000 -0.33648202 -166.00946 -38.785366 71.457878 -38.790955 71.261307 -0.75127298 -98.443878
11280735000 -0.33370006 -166.58466 -38.975964 69.899582 -38.944283 70.010406 -0.81483102 -98.797371
11289730000 -0.34041125 -167.17352 -39.098259 68.591858 -39.073696 68.550163 -0.88677388 -99.467896
11298725000 -0.34460828 -167.84596 -39.218086 66.623528 -39.160023 66.607033 -0.92122 -100.57838
11307720000 -0.34272158 -168.51761 -39.338966 64.692909 -39.243015 65.058647 -0.89314634 -101.90751
11316715000 -0.33702275 -169.14845 -39.411404 63.129963 -39.359238 62.952099 -0.82117057 -103.1412
11325710000 -0.33282912 -169.75249 -39.536236 60.618355 -39.523533 60.232193 -0.75525302 -103.98992
11334705000 -0.33228305 -170.34842 -39.723644 58.251427 -39.6964 58.032471 -0.73609996 -104.42345
11343700000 -0.32914352 -170.89943 -39.910236 56.124992 -39.930603 56.000294 -0.77429694 -104.69057
11352695000 -0.3334443 -171.48398 -40.177662 53.857307 -40.146313 53.854481 -0.8443374 -105.15434
11361690000 -0.33804309 -172.13863 -40.409851 52.013592 -40.419029 51.98534 -0.89999688 -106.0219
11370685000 -0.33424544 -172.77467 -40.621632 49.863972 -40.627705 50.053436 -0.90176153 -107.28987
11379680000 -0.32910749 -173.37807 -40.912144 47.855312 -40.862907 47.937107 -0.85094976 -108.6414
11388675000 -0.32568398 -173.98602 -41.120926 45.355225 -41.120178 45.33149 -0.77871096 -109.70792
11397670000 -0.32353914 -174.57048 -41.485771 43.034122 -41.384537 43.218342 -0.73154181 -110.32751
11406665000 -0.32085213 -175.13919 -41.789322 41.579819 -41.724293 41.455078 -0.73896921 -110.63426
11415660000 -0.326491 -175.74423 -42.112144 39.686127 -42.007168 39.42577 -0.79064786 -110.9525
11424655000 -0.32518235 -176.41447 -42.367336 37.717884 -42.345219 37.522999 -0.85209548 -111.58582
11433650000 -0.31952095 -177.04755 -42.757397 36.475964 -42.715576 36.061283 -0.8813985 -112.66858
11442645000 -0.31669635 -177.65967 -43.0849 34.840187 -43.026047 34.194969 -0.85862476 -114.05323
11451640000 -0.31603038 -178.27589 -43.41692 33.043224 -43.376972 32.251514 -0.79517519 -115.31387
11460635000 -0.3093442 -178.86661 -43.819279 31.309271 -43.815723 30.838642 -0.73205161 -116.19334
11469630000 -0.30453575 -179.41498 -44.168961 30.114847 -44.224731 29.748018 -0.70770407 -116.62418
11478625000 -0.30961636 179.98711 -44.60096 28.799429 -44.62389 28.649546 -0.73305482 -116.84659
11487620000 -0.30972475 179.33023 -45.062847 28.062254 -45.067181 27.806915 -0.79036278 -117.19318
11496615000 -0.30382112 178.72089 -45.494957 27.785961 -45.47625 27.672745 -0.84200698 -117.99947
11505610000 -0.30278072 178.12312 -45.818863 27.53186 -45.768257 27.100121 -0.85492206 -119.28893
11514605000 -0.30091625 177.49431 -46.158863 26.635006 -46.156212 26.108479 -0.81497246 -120.70115
11523600000 -0.29567179 176.93307 -46.530285 26.011929 -46.551868 25.481207 -0.75175214 -121.84693
11532595000 -0.29393917 176.3882 -46.921211 25.051233 -46.973045 24.675989 -0.70649713 -122.54285
11541590000 -0.29794571 175.79581 -47.343136 24.656473 -47.363312 24.103821 -0.70365655 -122.81097
11550585000 -0.30093873 175.1689 -47.738934 24.191936 -47.793964 23.440279 -0.74224019 -123.02312
11559580000 -0.29999527 174.55069 -48.172676 23.648516 -48.267941 23.095123 -0.80171466 -123.55981
11568575000 -0.30224147 173.93781 -48.637398 23.45801 -48.733482 22.998487 -0.84075803 -124.6305
11577570000 -0.2996372 173.31526 -49.124733 23.728746 -49.212849 23.160398 -0.83178604 -126.02445
11586565000 -0.29339993 172.73865 -49.472572 23.894228 -49.649014 23.588741 -0.78254914 -127.37483
11595560000 -0.29141879 172.1825 -49.849907 23.732891 -50.081623 23.841852 -0.72374976 -128.32114
11604555000 -0.29346308 171.60185 -50.300838 24.191904 -50.540661 24.418198 -0.69206899 -128.74315
11613550000 -0.29541329 170.99744 -50.675877 25.111416 -50.900421 25.667086 -0.70746732 -128.85689
11622545000 -0.29747137 170.39288 -50.987526 25.045134 -51.225201 25.809566 -0.76096481 -129.14452
11631540000 -0.29855901 169.7934 -51.500462 25.322714 -51.739613 26.552019 -0.81572795 -129.94281
11640535000 -0.29807574 169.15137 -52.030403 26.982241 -52.192638 28.254906 -0.83481675 -131.21072
11649530000 -0.29127124 168.58604 -52.359646 28.596245 -52.528717 30.249157 -0.80794472 -132.67018
11658525000 -0.29236758 168.03476 -52.663864 30.285339 -52.801727 31.565788 -0.75037414 -133.86597
11667520000 -0.29400316 167.43286 -52.992802 32.288654 -53.163425 33.356808 -0.69613582 -134.51979
11676515000 -0.29344425 166.83487 -53.256523 34.308338 -53.374279 35.455826 -0.6878252 -134.68541
11685510000 -0.29262093 166.28465 -53.412853 36.084656 -53.551453 37.638664 -0.72356319 -134.82727
11694505000 -0.2957347 165.69568 -53.637653 37.870003 -53.709164 39.761463 -0.7828635 -135.31633
11703500000 -0.29382119 165.09349 -53.822445 39.821712 -53.805733 42.202381 -0.82670051 -136.36589
11712495000 -0.29117879 164.54672 -53.972412 41.196957 -53.846512 43.356209 -0.82465184 -137.79303
11721490000 -0.2931504 163.98775 -54.209358 42.994133 -54.017937 44.899002 -0.77494669 -139.17218
11730485000 -0.29692447 163.37088 -54.373001 45.061939 -54.07935 46.172844 -0.71670675 -140.06232
11739480000 -0.29451147 162.78392 -54.553352 46.873119 -54.271599 47.49585 -0.68672079 -140.39421
11748475000 -0.29156688 162.23567 -54.74115 48.585693 -54.400627 49.070129 -0.70112717 -140.48018
11757470000 -0.29492483 161.66667 -54.949631 51.649929 -54.590046 51.361568 -0.75403279 -140.74048
11766465000 -0.29294297 161.09514 -54.903854 54.722412 -54.559807 53.787804 -0.80887234 -141.49648
11775460000 -0.2923111 160.55043 -54.782227 56.110546 -54.525826 54.832771 -0.83077854 -142.81387
11784455000 -0.29905841 159.98302 -54.87365 57.501205 -54.644157 55.882763 -0.80233026 -144.27951
11793450000 -0.30162764 159.36122 -54.931839 59.157928 -54.785282 56.937904 -0.74447525 -145.40425
11802445000 -0.29841399 158.76553 -54.899647 61.153442 -54.833092 58.932377 -0.7012139 -145.97974
11811440000 -0.29420954 158.20998 -54.83437 62.530766 -55.020676 60.362305 -0.69132888 -146.14813
11820435000 -0.29368687 157.64101 -54.839371 63.759651 -55.033886 62.621929 -0.72477061 -146.23842
11829430000 -0.29288372 157.08978 -54.878349 64.947479 -55.051453 64.589851 -0.78044373 -146.71977
11838425000 -0.29427519 156.55525 -54.928238 66.846138 -55.153202 66.80191 -0.82219523 -147.77962
11847420000 -0.2998946 155.95784 -54.918987 68.777832 -55.116364 69.607063 -0.8204385 -149.20059
11856415000 -0.30017778 155.34384 -54.841713 71.273384 -54.971592 72.117065 -0.7776804 -150.51897
11865410000 -0.29631886 154.77309 -54.755836 74.003036 -54.807186 74.637177 -0.72450423 -151.3508
11874405000 -0.29520825 154.24402 -54.410831 76.421722 -54.520943 77.225975 -0.69485945 -151.67026
11883400000 -0.29472506 153.71217 -54.087948 77.368668 -54.147728 78.895088 -0.70377982 -151.70038
11892395000 -0.29447243 153.19859 -53.762222 78.297173 -53.781315 79.489029 -0.75151241 -151.95064
11901390000 -0.2986092 152.67049 -53.584175 78.919174 -53.522251 80.004372 -0.804084 -152.72444
11910385000 -0.30425227 152.0835 -53.383236 80.06102 -53.298027 80.208488 -0.82351893 -154.00195
11919380000 -0.3057293 151.47101 -53.097237 81.818649 -53.142899 81.235748 -0.8008374 -155.41853
11928375000 -0.30057141 150.90846 -52.692955 82.53421 -52.794525 82.557793 -0.75073135 -156.50809
11937370000 -0.29724988 150.37613 -52.217701 82.413231 -52.362297 82.553459 -0.70429611 -157.06142
11946365000 -0.29689562 149.85335 -51.934948 80.493698 -52.061981 81.311829 -0.69322366 -157.15529
11955360000 -0.29650068 149.36638 -51.951214 79.49308 -52.022572 80.864777 -0.72430819 -157.24596
11964355000 -0.3035371 148.84296 -51.914776 79.810669 -51.874683 81.134293 -0.77365839 -157.73271
11973350000 -0.31236318 148.23662 -51.817303 80.808807 -51.690601 81.568871 -0.81255972 -158.79214
11982345000 -0.31069675 147.62193 -51.542797 81.659721 -51.47237 82.071541 -0.81351745 -160.16861
11991340000 -0.30500531 147.06635 -51.266598 81.99221 -51.201595 82.449417 -0.77494949 -161.478
12000335000 -0.30006158 146.51155 -50.981697 81.72805 -50.853043 81.958344 -0.72470546 -162.28137
12009330000 -0.29412782 145.99324 -50.821117 81.127388 -50.688683 81.515533 -0.69253951 -162.52733
12018325000 -0.29384196 145.5219 -50.574612 81.271423 -50.458813 81.341858 -0.7047531 -162.56148
12027320000 -0.30421674 145.01486 -50.347649 80.617714 -50.216068 80.452545 -0.74355602 -162.82465
12036315000 -0.30858514 144.41357 -50.120419 80.166313 -49.99818 79.339325 -0.78834295 -163.59361
12045310000 -0.30649289 143.82509 -49.940262 79.41069 -49.908848 78.36689 -0.81270766 -164.84648
12054305000 -0.30325121 143.25784 -49.801601 78.703026 -49.816025 77.997246 -0.79855537 -166.26724
12063300000 -0.29988572 142.70911 -49.669613 78.224251 -49.678345 77.482498 -0.75041568 -167.34393
12072295000 -0.29598245 142.21368 -49.541504 77.824593 -49.610558 77.00634 -0.70456159 -167.81906
12081290000 -0.29507637 141.74344 -49.364407 77.52729 -49.483677 76.673454 -0.69146913 -167.91873
12090285000 -0.30464154 141.23737 -49.173595 76.810204 -49.340183 76.255188 -0.7096169 -167.98199
12099280000 -0.31212258 140.63838 -49.053249 76.261955 -49.207695 75.979073 -0.75268698 -168.39441
12108275000 -0.31034473 140.06052 -48.865463 75.689735 -49.017532 75.774902 -0.79691333 -169.35541
12117270000 -0.30556685 139.50002 -48.663078 74.873558 -48.800934 75.062523 -0.80862474 -170.74219
12126265000 -0.30331615 138.92853 -48.511875 73.954773 -48.646461 74.163742 -0.7797569 -172.01154
12135260000 -0.29595029 138.43248 -48.394825 73.152565 -48.523411 73.413727 -0.73268008 -172.80658
12144255000 -0.29300529 137.96695 -48.277622 72.1614 -48.412849 72.880394 -0.70112598 -173.09775
12153250000 -0.30280763 137.45515 -48.141911 71.72554 -48.225628 72.29763 -0.69606835 -173.13705
12162245000 -0.30665541 136.87648 -47.901306 70.893356 -47.950226 71.316597 -0.72322869 -173.29875
12171240000 -0.30511972 136.32417 -47.762211 69.137436 -47.82412 69.401062 -0.769795 -174.0163
12180235000 -0.30430752 135.76817 -47.720985 68.102325 -47.769428 68.357269 -0.80054981 -175.26857
12189230000 -0.29733109 135.21773 -47.632015 67.749901 -47.689022 68.013611 -0.79080188 -176.66228
12198225000 -0.29218206 134.75342 -47.48394 67.088745 -47.534546 67.592926 -0.75293356 -177.74355
12207220000 -0.29321381 134.29753 -47.303436 66.240784 -47.322796 66.36705 -0.7064091 -178.27917
12216215000 -0.30286205 133.76979 -47.130096 65.301765 -47.194157 65.056747 -0.67849714 -178.34633
12225210000 -0.30497366 133.2032 -46.958351 64.000694 -47.068768 63.925846 -0.69022661 -178.338
12234205000 -0.30604345 132.64853 -46.822006 62.118816 -46.973305 62.422649 -0.73744524 -178.71025
12243200000 -0.30321512 132.05653 -46.774178 60.614487 -46.899456 61.563004 -0.78351516 -179.69247
12252195000 -0.3006283 131.50981 -46.70055 59.356304 -46.778896 60.185852 -0.80187285 178.94765
12261190000 -0.29359934 131.04298 -46.711952 58.071308 -46.801254 58.799465 -0.78312975 177.63992
12270185000 -0.29588377 130.57973 -46.747284 57.596958 -46.821587 58.20768 -0.73299021 176.77199
12279180000 -0.3033711 130.06149 -46.693748 57.350536 -46.802914 57.965855 -0.6839819 176.51157
12288175000 -0.30519471 129.50105 -46.556213 56.816689 -46.661579 57.472832 -0.66992301 176.56548
12297170000 -0.30574182 128.98468 -46.469845 55.70451 -46.592445 56.609554 -0.69848317 176.42549
12306165000 -0.30471236 128.41609 -46.437469 54.904659 -46.547398 56.168442 -0.74718559 175.77245
12315160000 -0.29961556 127.8736 -46.353882 54.455109 -46.385765 56.012146 -0.78847736 174.57903
12324155000 -0.29518387 127.38819 -46.182789 54.081261 -46.170734 55.243847 -0.79169887 173.16791
12333150000 -0.29633385 126.90733 -46.028378 53.109028 -46.038864 54.123947 -0.75295264 172.04381
12342145000 -0.29970405 126.3912 -45.939522 52.3274 -45.908249 53.106838 -0.69996005 171.53029
12351140000 -0.30100283 125.86599 -45.780178 51.288498 -45.789494 52.00383 -0.66707152 171.50743
12360135000 -0.30133769 125.35448 -45.634663 49.99762 -45.660686 50.807171 -0.67305171 171.55241
12369130000 -0.30161765 124.81545 -45.55164 48.719425 -45.554512 49.220139 -0.71564102 171.20622
12378125000 -0.30060667 124.2863 -45.458847 47.504894 -45.517361 48.037342 -0.76718885 170.29204
12387120000 -0.29888511 123.77838 -45.384613 46.268299 -45.451668 47.138382 -0.7939198 168.89856
12396115000 -0.30225813 123.26642 -45.341797 45.371563 -45.403336 46.150909 -0.77279389 167.56712
12405110000 -0.3042728 122.7149 -45.269913 44.816818 -45.317654 45.523277 -0.71845102 166.75967
12414105000 -0.30314434 122.18882 -45.169449 43.728012 -45.228691 44.783249 -0.67265576 166.56012
12423100000 -0.30097064 121.68362 -45.077637 42.931499 -45.129925 44.000427 -0.65782011 166.61911
12432095000 -0.29958838 121.15781 -44.981873 42.112469 -45.004284 43.360947 -0.68257523 166.53331
12441090000 -0.29954097 120.63351 -44.837719 40.804142 -44.841522 42.099792 -0.73739094 165.91188
12450085000 -0.29906258 120.13647 -44.740158 39.69112 -44.750809 40.822784 -0.7857632 164.66029
12459080000 -0.30337805 119.6231 -44.67123 38.568481 -44.661545 39.636196 -0.78735757 163.22342
12468075000 -0.30437833 119.09367 -44.609737 37.591526 -44.598381 38.579346 -0.74686891 162.11978
12477070000 -0.30323121 118.58976 -44.582264 36.579678 -44.560131 37.63755 -0.69451803 161.60246
12486065000 -0.30176777 118.08486 -44.534172 35.998138 -44.509621 37.002258 -0.65646857 161.57114
12495060000 -0.30252317 117.57751 -44.421448 35.174168 -44.383408 36.181019 -0.65946257 161.66586
12504055000 -0.30066407 117.08966 -44.304134 34.202629 -44.238163 35.365044 -0.70305234 161.3864
12513050000 -0.302257 116.60499 -44.175953 33.257607 -44.119247 34.031464 -0.7549364 160.4632
12522045000 -0.30531272 116.08884 -44.075787 31.911043 -44.020824 32.731071 -0.78325069 159.15976
12531040000 -0.30628815 115.56081 -43.992966 30.856483 -43.949081 31.588068 -0.77026635 157.89313
12540035000 -0.30675429 115.0632 -43.957256 29.817698 -43.887897 30.641615 -0.72434729 157.07127
12549030000 -0.30618483 114.54388 -43.888458 29.206455 -43.811882 29.765097 -0.67427325 156.81165
12558025000 -0.30677763 114.02101 -43.793999 28.36577 -43.71315 29.027775 -0.65329856 156.89278
12567020000 -0.30469319 113.52553 -43.639317 27.475813 -43.587669 28.029646 -0.68063426 156.79521
12576015000 -0.30611873 113.02578 -43.493736 26.464813 -43.456181 27.170837 -0.72963488 156.17894
12585010000 -0.31056774 112.49835 -43.37233 25.494234 -43.304935 26.119425 -0.77013034 155.03831
12594005000 -0.31136829 111.97147 -43.236965 24.430983 -43.16573 25.031677 -0.7825321 153.70645
12603000000 -0.31112108 111.46487 -43.12553 23.206751 -43.065731 23.769123 -0.75240809 152.58372
12611995000 -0.31046569 110.95564 -43.062126 22.167856 -42.981567 22.634323 -0.69821775 152.06628
12620990000 -0.31029996 110.4572 -42.970585 21.212502 -42.920422 21.774084 -0.65755117 152.07573
12629985000 -0.30772588 109.98464 -42.876953 20.497967 -42.835934 21.153147 -0.65989071 152.13857
12638980000 -0.31227973 109.5056 -42.679226 19.871637 -42.641365 20.458124 -0.69453323 151.82756
12647975000 -0.31594852 108.97134 -42.50946 18.788225 -42.4459 19.246914 -0.74470204 150.99037
12656970000 -0.31776235 108.44906 -42.341736 17.745623 -42.268505 18.120546 -0.78210038 149.71133
12665965000 -0.31806234 107.94757 -42.190285 16.394068 -42.115562 16.866072 -0.77735066 148.37709
12674960000 -0.31664178 107.42746 -42.072449 15.32222 -41.989807 15.652096 -0.73123825 147.53705
12683955000 -0.31408173 106.9362 -41.907898 14.274152 -41.826668 14.744956 -0.67984653 147.3165
12692950000 -0.31403637 106.472 -41.709221 13.130202 -41.664715 13.624804 -0.65822768 147.37186
12701945000 -0.31929025 105.9959 -41.524395 11.893882 -41.463802 12.213068 -0.66909218 147.30594
12710940000 -0.32325137 105.47041 -41.343594 10.331401 -41.261383 10.663776 -0.7148478 146.81535
12719935000 -0.32523981 104.94811 -41.14706 8.7029238 -41.073494 9.0110235 -0.76762193 145.7523
12728930000 -0.326906 104.43902 -40.975967 7.019454 -40.907143 7.3336415 -0.7918517 144.38112
12737925000 -0.32599008 103.92954 -40.850845 5.3908858 -40.775803 5.7107363 -0.76688737 143.26767
12746920000 -0.32461184 103.44281 -40.702633 3.9490004 -40.636261 4.3094301 -0.71925402 142.72319
12755915000 -0.32599428 102.98878 -40.542961 2.58797 -40.485237 2.8449934 -0.67745864 142.61293
12764910000 -0.33312929 102.48962 -40.363304 1.1831704 -40.297974 1.2463062 -0.66077733 142.67484
12773905000 -0.33753386 101.95551 -40.156773 -0.55787617 -40.097748 -0.50299764 -0.68714529 142.48956
12782900000 -0.33858514 101.4599 -39.94836 -2.5515614 -39.873463 -2.4739218 -0.7463764 141.72636
12791895000 -0.3413218 100.95735 -39.79071 -4.3790755 -39.715504 -4.5342083 -0.79515219 140.47878
12800890000 -0.34173542 100.46791 -39.616085 -6.1695504 -39.579483 -6.2959385 -0.79735154 139.23186
12809885000 -0.34020856 100.01268 -39.469997 -8.2442608 -39.428741 -8.7203541 -0.7651208 138.36987
12818880000 -0.34517694 99.580513 -39.326164 -10.168095 -39.285942 -10.42193 -0.71384913 138.03728
12827875000 -0.3534835 99.091118 -39.156414 -12.049701 -39.153263 -12.61407 -0.67381495 138.09404
12836870000 -0.35843334 98.584717 -39.013538 -14.529913 -38.993484 -14.765742 -0.67811042 138.159
12845865000 -0.36181104 98.089294 -38.847763 -16.707502 -38.826077 -16.675934 -0.73107433 137.72078
12854860000 -0.36443371 97.583969 -38.689938 -19.271378 -38.700821 -19.102638 -0.79385734 136.7076
12863855000 -0.36318874 97.084862 -38.578056 -21.843889 -38.524021 -21.784845 -0.83085656 135.43089
12872850000 -0.36185941 96.642639 -38.428745 -24.168322 -38.395996 -24.303747 -0.82509881 134.3019
12881845000 -0.36619893 96.218956 -38.376629 -26.813786 -38.341148 -26.593065 -0.77475548 133.64961
12890840000 -0.37445468 95.767952 -38.294567 -29.143457 -38.229321 -29.242775 -0.71643317 133.5699
12899835000 -0.37948585 95.294624 -38.176865 -31.534838 -38.148273 -31.381725 -0.69396126 133.73767
12908830000 -0.38288704 94.822639 -38.015949 -34.354481 -37.98827 -34.326237 -0.72127563 133.60837
12917825000 -0.38632339 94.328491 -37.949009 -37.371498 -37.909981 -37.533115 -0.77939355 132.96251
12926820000 -0.38725212 93.842201 -37.892773 -40.580345 -37.828651 -40.515224 -0.8422904 131.85574
12935815000 -0.38700336 93.399437 -37.885075 -43.433121 -37.829334 -43.37957 -0.86896986 130.61293
12944810000 -0.38994062 92.957649 -37.852734 -46.409924 -37.838501 -46.561111 -0.83616692 129.71072
12953805000 -0.39349991 92.491272 -37.904182 -49.101631 -37.903831 -49.181065 -0.77361047 129.41702
12962800000 -0.39377654 92.028854 -37.999928 -51.658733 -37.935585 -52.161392 -0.7279247 129.52094
12971795000 -0.39410475 91.586632 -38.034794 -54.696281 -37.980366 -54.53244 -0.72607875 129.57002
12980790000 -0.3946493 91.111366 -38.061272 -57.639256 -38.01207 -57.437386 -0.76741433 129.22389
12989785000 -0.393087 90.6605 -38.122753 -60.35141 -38.059444 -60.383675 -0.8338939 128.35728
12998780000 -0.39214146 90.233688 -38.308342 -63.286449 -38.187569 -63.355389 -0.88580817 127.0919
13007775000 -0.39488149 89.793259 -38.389942 -65.535286 -38.336933 -65.669159 -0.88078332 125.9728
13016770000 -0.39546156 89.322166 -38.521194 -67.834648 -38.508381 -67.947723 -0.82547569 125.38219
13025765000 -0.39437035 88.866943 -38.69397 -70.179344 -38.652981 -70.268997 -0.7633 125.34245
13034760000 -0.39261323 88.406876 -38.820194 -72.175873 -38.759186 -72.403412 -0.72846836 125.50838
13043755000 -0.39145049 87.926857 -38.937592 -74.589005 -38.891632 -74.734291 -0.73924911 125.49041
13052750000 -0.38772249 87.444183 -39.108807 -76.896835 -39.051239 -76.961617 -0.79732138 124.96423
13061745000 -0.38687885 86.986343 -39.277782 -78.757553 -39.204445 -79.035362 -0.86196977 123.90697
13070740000 -0.38863054 86.510719 -39.43153 -80.853806 -39.331696 -80.93882 -0.88033694 122.69926
13079735000 -0.3874805 86.021469 -39.597862 -82.671051 -39.515598 -82.727776 -0.84028685 121.80231
13088730000 -0.3833425 85.566658 -39.73407 -84.228027 -39.703789 -84.381538 -0.76987624 121.40623
13097725000 -0.38109073 85.108894 -39.89949 -85.461517 -39.845734 -85.579056 -0.70261139 121.4211
13106720000 -0.38109496 84.62719 -40.024975 -86.842293 -39.941383 -87.076263 -0.67656225 121.50498
13115715000 -0.37934092 84.168037 -40.121796 -88.228745 -40.028149 -88.66375 -0.7108894 121.21481
13124710000 -0.3804504 83.704239 -40.216419 -90.056702 -40.173386 -90.133888 -0.77423412 120.36306
13133705000 -0.38174188 83.224922 -40.333004 -91.225365 -40.209488 -91.953667 -0.8197 119.22248
13142700000 -0.3793124 82.748642 -40.347717 -92.720657 -40.354961 -92.986427 -0.81943303 118.14766
13151695000 -0.37488699 82.299545 -40.500477 -94.027374 -40.503311 -94.715279 -0.77140087 117.46047
13160690000 -0.37423855 81.851501 -40.592403 -95.457939 -40.578426 -95.474869 -0.69754714 117.24762
13169685000 -0.37425604 81.41452 -40.65979 -96.415771 -40.600624 -96.857384 -0.64967322 117.31697
13178680000 -0.37498912 80.974403 -40.690224 -97.789818 -40.6894 -98.183495 -0.65713316 117.17307
13187675000 -0.37911239 80.509277 -40.678692 -99.855171 -40.69939 -100.01764 -0.7073586 116.57874
13196670000 -0.38091919 80.010574 -40.800159 -101.82381 -40.786587 -101.86826 -0.76533997 115.62836
13205665000 -0.37875932 79.52372 -40.902145 -103.60314 -40.868042 -103.52753 -0.80136192 114.50895
13214660000 -0.37550136 79.066895 -41.008045 -104.86149 -40.954884 -104.98406 -0.78211772 113.59156
13223655000 -0.37292361 78.626038 -41.053566 -106.23408 -40.951576 -106.40479 -0.71506757 113.1487
13232650000 -0.3723045 78.180542 -41.156254 -107.76669 -41.101669 -107.70289 -0.65121877 113.11039
13241645000 -0.37393522 77.747528 -41.116787 -109.36065 -41.184303 -109.65847 -0.63030577 113.07887
13250640000 -0.37769434 77.278793 -41.237831 -110.95882 -41.194778 -111.37712 -0.65171832 112.74973
13259635000 -0.37927765 76.779839 -41.319412 -112.89656 -41.285229 -113.53572 -0.70916641 112.05704
13268630000 -0.37573421 76.282631 -41.397312 -115.15393 -41.344467 -115.17247 -0.7673856 111.03667
13277625000 -0.37100595 75.825165 -41.459492 -117.03962 -41.366222 -117.60841 -0.78029346 109.97875
13286620000 -0.36727628 75.370903 -41.553497 -118.96764 -41.485214 -119.46648 -0.73292917 109.27721
13295615000 -0.36579451 74.936195 -41.603977 -120.61256 -41.602943 -121.09898 -0.66597569 109.03114
13304610000 -0.36630172 74.506256 -41.762272 -122.44765 -41.731022 -123.09878 -0.61486167 108.95429
13313605000 -0.36938959 74.036385 -41.911564 -124.64745 -41.87112 -125.22173 -0.6055609 108.76939
13322600000 -0.37270501 73.536751 -42.08989 -126.87592 -42.035786 -127.63374 -0.64530337 108.29882
13331595000 -0.36873096 73.053139 -42.285877 -128.34436 -42.244572 -129.35303 -0.7123403 107.4313
13340590000 -0.36481491 72.594078 -42.441349 -130.59453 -42.496876 -131.0858 -0.74846846 106.36987
13349585000 -0.36147594 72.135719 -42.604305 -132.32938 -42.612396 -132.97984 -0.72967929 105.51939
13358580000 -0.35948911 71.709297 -42.836445 -133.65788 -42.847775 -134.2049 -0.67694885 105.06876
13367575000 -0.35982826 71.276192 -43.030457 -134.72075 -43.058701 -134.91402 -0.61490607 104.89272
13376570000 -0.36667407 70.795029 -43.185013 -135.97655 -43.222599 -136.45366 -0.57916248 104.77861
13385565000 -0.36852497 70.28685 -43.330109 -137.62645 -43.360699 -138.04704 -0.59509295 104.51852
13394560000 -0.36626142 69.786613 -43.502216 -139.71103 -43.527485 -140.07954 -0.6584819 103.84799
13403555000 -0.36114681 69.315674 -43.724255 -141.38135 -43.753292 -141.92278 -0.71246386 102.86121
13412550000 -0.35630205 68.85611 -43.953445 -142.67989 -43.985825 -143.18246 -0.72359592 101.9135
13421545000 -0.35262203 68.443787 -44.131069 -143.6237 -44.196571 -144.10085 -0.69233978 101.2086
13430540000 -0.35386989 68.026718 -44.298054 -144.58804 -44.400841 -144.92868 -0.62968594 100.82552
13439535000 -0.36103794 67.560677 -44.456882 -145.77602 -44.548111 -146.15222 -0.56965238 100.6833
13448530000 -0.36502522 67.065269 -44.622578 -147.09502 -44.724075 -147.53973 -0.56234699 100.51994
13457525000 -0.36428225 66.565605 -44.81543 -148.70117 -44.913143 -148.9281 -0.60719079 100.03271
13466520000 -0.36315438 66.074608 -45.03294 -150.12108 -45.130978 -150.49632 -0.66662723 99.197868
13475515000 -0.35790372 65.613876 -45.212063 -151.14398 -45.327709 -151.3354 -0.70916736 98.271858
13484510000 -0.35529426 65.177544 -45.347385 -152.63463 -45.463787 -152.43689 -0.705257 97.427437
13493505000 -0.35844544 64.750648 -45.546265 -153.86122 -45.659012 -153.33904 -0.65319324 96.851616
13502500000 -0.36394137 64.292015 -45.786694 -154.94431 -45.837624 -154.61256 -0.58377743 96.617874
13511495000 -0.36653152 63.812634 -46.016811 -156.10686 -46.009796 -155.87726 -0.54784787 96.53154
13520490000 -0.36683828 63.326878 -46.190582 -156.97118 -46.199322 -157.07693 -0.57003224 96.218452
13529485000 -0.36484277 62.836758 -46.367695 -158.2426 -46.405544 -158.59738 -0.62405986 95.597862
13538480000 -0.36204877 62.379505 -46.558296 -159.72707 -46.601871 -160.09119 -0.68299812 94.745758
13547475000 -0.36018065 61.942604 -46.772575 -160.90459 -46.842842 -161.25861 -0.71264225 93.825325
13556470000 -0.36370069 61.502213 -46.972183 -161.84254 -47.084923 -162.15956 -0.68503314 93.054771
13565465000 -0.36743349 61.044434 -47.11998 -162.88496 -47.215015 -163.10458 -0.61862069 92.669815
13574460000 -0.37015259 60.565254 -47.228287 -164.59183 -47.328709 -164.90218 -0.56580222 92.520721
13583455000 -0.36989495 60.092476 -47.473202 -166.88052 -47.567699 -166.9476 -0.5574863 92.302666
13592450000 -0.36839986 59.619213 -47.834091 -168.65442 -47.945816 -168.96136 -0.59429353 91.869827
13601445000 -0.36538196 59.171719 -48.177349 -169.95296 -48.327087 -170.08612 -0.660806 91.169304
13610440000 -0.36727178 58.731983 -48.502483 -171.26961 -48.630138 -171.08652 -0.71338874 90.245399
13619435000 -0.37044662 58.286774 -48.804218 -172.31523 -48.933857 -171.97717 -0.71166939 89.379089
13628430000 -0.3760303 57.824409 -49.040596 -173.18942 -49.140583 -172.96806 -0.66057664 88.856064
13637425000 -0.37829867 57.357773 -49.270432 -174.73842 -49.322803 -174.43748 -0.59947407 88.585953
13646420000 -0.37965253 56.885887 -49.50098 -176.42442 -49.58387 -176.37331 -0.56835806 88.423714
13655415000 -0.37938669 56.416836 -49.856831 -178.54581 -49.970181 -178.57851 -0.58229184 88.15036
13664410000 -0.37769434 55.96772 -50.332161 179.39377 -50.476124 179.58812 -0.64195812 87.624672
13673405000 -0.38085476 55.543018 -50.771626 177.98805 -50.885437 178.22028 -0.70853317 86.785736
13682400000 -0.38563704 55.101501 -51.094948 176.30159 -51.247341 176.45793 -0.73601717 85.885986
13691395000 -0.39046451 54.644054 -51.500233 173.37102 -51.652176 173.6212 -0.70968765 85.200401
13700390000 -0.39256448 54.192047 -52.035866 170.46309 -52.16568 170.77986 -0.65626055 84.773071
13709385000 -0.39379013 53.741753 -52.738174 167.62498 -52.810158 167.44435 -0.60132706 84.558731
13718380000 -0.39414275 53.287086 -53.528095 164.13783 -53.677689 163.83075 -0.58910346 84.395302
13727375000 -0.39444348 52.851143 -54.651379 161.29126 -54.856754 160.61232 -0.62946481 84.034294
13736370000 -0.39697677 52.405354 -55.7258 158.5616 -55.99435 157.65822 -0.69531786 83.38102
13745365000 -0.39961451 51.973675 -57.123028 154.44395 -57.520756 153.56506 -0.74447739 82.546181
13754360000 -0.402996 51.514297 -58.861801 151.36749 -59.516418 150.27248 -0.74982959 81.779137
13763355000 -0.40330759 51.073879 -60.990772 147.8307 -61.861675 148.28372 -0.71346134 81.204414
13772350000 -0.40318829 50.637531 -64.175301 144.22594 -65.190002 148.04349 -0.65156972 80.89061
13781345000 -0.40238851 50.213985 -69.029678 144.6897 -70.334915 149.08803 -0.61324793 80.743988
13790340000 -0.40383852 49.808414 -78.037331 147.26233 -81.20871 159.23573 -0.62569129 80.528938
13799335000 -0.40543225 49.370007 -79.133705 -34.954266 -76.875443 -34.399048 -0.67752308 80.035889
13808330000 -0.40972647 48.915333 -68.484177 -31.694414 -67.336082 -35.692093 -0.73239756 79.320831
13817325000 -0.41151077 48.445267 -63.320225 -39.631229 -62.580936 -40.566196 -0.76364839 78.552612
13826320000 -0.41039872 47.989079 -60.206459 -45.352196 -59.641354 -46.442577 -0.74842757 77.848724
13835315000 -0.40833166 47.532433 -57.837677 -49.845039 -57.509823 -51.048458 -0.69237709 77.397995
13844310000 -0.40660667 47.104584 -56.181885 -55.029785 -55.93317 -55.67923 -0.63567567 77.192719
13853305000 -0.40456784 46.704933 -54.958405 -57.71822 -54.732845 -58.539593 -0.61986792 76.995003
13862300000 -0.40515888 46.285763 -53.800171 -60.340431 -53.606171 -61.408195 -0.64742512 76.635986
13871295000 -0.40913823 45.843189 -52.705643 -63.553471 -52.551533 -64.696266 -0.70007747 76.071396
13880290000 -0.41119999 45.387253 -51.853127 -67.019943 -51.806171 -68.084854 -0.74760926 75.320221
13889285000 -0.41009885 44.925957 -50.995251 -70.133209 -51.029202 -71.230247 -0.7562542 74.54493
13898280000 -0.40881997 44.465733 -50.315323 -73.612061 -50.392918 -74.094643 -0.71553057 73.950806
13907275000 -0.40602455 44.031384 -49.764111 -76.271996 -49.771904 -76.476707 -0.65802044 73.589996
13916270000 -0.40527737 43.603394 -49.115414 -79.013771 -49.139099 -78.955254 -0.61955833 73.354271
13925265000 -0.40686196 43.168842 -48.616287 -82.139099 -48.653461 -82.040237 -0.61719084 73.054596
13934260000 -0.40915218 42.722439 -48.196014 -85.405769 -48.197365 -85.191849 -0.65391088 72.644585
13943255000 -0.4106639 42.273785 -47.838551 -89.248993 -47.867481 -88.740219 -0.7096532 72.01593
13952250000 -0.40946135 41.821686 -47.599678 -92.216797 -47.565544 -91.502769 -0.73936725 71.267685
13961245000 -0.40778881 41.375397 -47.31472 -94.379929 -47.243149 -94.156403 -0.72452444 70.621414
13970240000 -0.40673319 40.948048 -46.984249 -97.148811 -46.883331 -96.975647 -0.68108636 70.192474
13979235000 -0.40818635 40.517899 -46.738144 -100.34543 -46.676289 -100.27185 -0.63524747 69.896767
13988230000 -0.40876877 40.087059 -46.667194 -103.64035 -46.632675 -103.58596 -0.61155045 69.61953
13997225000 -0.41123074 39.634892 -46.692848 -105.99737 -46.630722 -105.91994 -0.62981582 69.286247
14006220000 -0.41205776 39.175232 -46.692375 -107.98166 -46.646267 -108.30029 -0.68419462 68.718704
14015215000 -0.41064343 38.710114 -46.7244 -109.43452 -46.741962 -109.8495 -0.7262103 67.99958
14024210000 -0.40867946 38.260506 -46.693901 -110.20645 -46.714993 -110.5172 -0.73530114 67.284836
14033205000 -0.40825659 37.826283 -46.653179 -111.1088 -46.621891 -111.36641 -0.70626104 66.703697
14042200000 -0.40884501 37.38271 -46.459686 -111.9968 -46.496601 -112.20962 -0.66066855 66.289131
14051195000 -0.40928927 36.940765 -46.351448 -113.49321 -46.352627 -113.60226 -0.61885262 66.014549
14060190000 -0.41306999 36.500248 -46.274086 -115.13176 -46.30854 -115.52586 -0.61663467 65.770271
14069185000 -0.41236004 36.043812 -46.31741 -116.30544 -46.382637 -116.59917 -0.6555416 65.322838
14078180000 -0.41075382 35.594921 -46.312099 -116.60123 -46.397163 -116.66032 -0.70455241 64.697311
14087175000 -0.40871075 35.171135 -46.184177 -117.0864 -46.284878 -116.8661 -0.73337632 64.031784
14096170000 -0.41076607 34.75877 -46.043083 -117.82739 -46.132771 -117.23864 -0.72692329 63.391975
14105165000 -0.41137046 34.345432 -45.913506 -119.03554 -45.930756 -118.46078 -0.68649548 62.867863
14114160000 -0.41344184 33.914177 -45.835667 -120.27915 -45.826004 -119.73577 -0.63684124 62.546101
14123155000 -0.41651896 33.449158 -45.813774 -121.02174 -45.749203 -120.93964 -0.6142652 62.315601
14132150000 -0.41577256 32.972347 -45.771412 -121.0155 -45.74939 -121.76749 -0.63577396 61.966728
14141145000 -0.41391391 32.509251 -45.565456 -121.40437 -45.621109 -122.32015 -0.68036234 61.468262
14150140000 -0.4107931 32.079109 -45.485657 -122.60303 -45.571724 -123.22424 -0.7220003 60.839584
14159135000 -0.41081387 31.654959 -45.357346 -123.26134 -45.52145 -123.83369 -0.73724979 60.171146
14168130000 -0.41131014 31.227604 -45.216496 -124.60523 -45.408363 -124.67912 -0.71303183 59.557194
14177125000 -0.41207001 30.799168 -45.158237 -125.76556 -45.393997 -125.43295 -0.66194242 59.145279
14186120000 -0.41362974 30.356321 -45.140835 -126.24107 -45.329308 -125.52141 -0.6222201 58.875549
14195115000 -0.41393214 29.896957 -45.0415 -126.28072 -45.191292 -125.48035 -0.61831951 58.559811
14204110000 -0.41111207 29.45207 -44.904919 -126.66029 -45.03384 -126.01955 -0.64726198 58.147568
14213105000 -0.40852019 29.025036 -44.809151 -127.22099 -44.910328 -126.62403 -0.6948154 57.598274
14222100000 -0.40605351 28.590307 -44.71973 -127.69783 -44.876682 -126.96704 -0.72953874 56.920517
14231095000 -0.40509579 28.150314 -44.526058 -127.79843 -44.66457 -126.63654 -0.72465837 56.259361
14240090000 -0.40640968 27.716463 -44.244019 -128.62636 -44.396912 -127.687 -0.68476856 55.771763
14249085000 -0.40732336 27.274494 -44.019783 -130.24788 -44.131241 -128.73822 -0.64022601 55.448868
14258080000 -0.40759149 26.816708 -43.973236 -131.54286 -44.035122 -130.0594 -0.61517715 55.173328
14267075000 -0.40468261 26.378435 -43.888611 -132.0759 -43.894295 -131.00807 -0.62135893 54.843216
14276070000 -0.40485567 25.944109 -43.769821 -132.97453 -43.804379 -131.96774 -0.65928054 54.390755
14285065000 -0.40401778 25.497866 -43.66362 -133.98035 -43.696217 -132.68181 -0.70321059 53.773376
14294060000 -0.40444365 25.051779 -43.548382 -134.881 -43.569824 -133.61937 -0.71815109 53.083256
14303055000 -0.40354508 24.600986 -43.42049 -136.00566 -43.415005 -134.87888 -0.69504994 52.49667
14312050000 -0.4044539 24.1593 -43.345936 -137.17967 -43.316422 -136.18785 -0.65377069 52.073467
14321045000 -0.40399164 23.699259 -43.215733 -137.8968 -43.250793 -136.94006 -0.61689544 51.744713
14330040000 -0.39973345 23.277113 -43.107792 -139.00946 -43.123856 -137.77139 -0.60526925 51.477608
14339035000 -0.39899614 22.856462 -43.094631 -139.75104 -43.050274 -138.43333 -0.63083375 51.114212
14348030000 -0.39735004 22.413286 -42.949341 -140.32986 -42.899117 -139.13031 -0.67485321 50.551884
14357025000 -0.39747316 21.97464 -42.824516 -141.41281 -42.746979 -140.25572 -0.70218199 49.918163
14366020000 -0.39611232 21.525375 -42.706257 -142.63725 -42.616489 -141.62767 -0.69711798 49.294147
14375015000 -0.39713588 21.059351 -42.597797 -143.459 -42.514648 -142.77058 -0.66643953 48.772552
14384010000 -0.39468983 20.593946 -42.474167 -144.47572 -42.356579 -143.88452 -0.62444717 48.406124
14393005000 -0.39154652 20.166471 -42.37608 -145.56279 -42.268295 -145.26817 -0.59569091 48.155464
14402000000 -0.389788 19.738094 -42.334385 -146.7549 -42.245426 -146.5006 -0.59985149 47.845882
14410995000 -0.38840494 19.301199 -42.293266 -147.57018 -42.19812 -147.40945 -0.63559324 47.386105
14419990000 -0.38773409 18.857624 -42.24472 -148.17389 -42.200043 -148.2229 -0.6711458 46.768158
14428985000 -0.38694903 18.400751 -42.14584 -148.76497 -42.11248 -148.80254 -0.68944985 46.103065
14437980000 -0.38778928 17.947615 -42.025581 -149.51903 -42.002575 -149.58937 -0.67484534 45.473793
14446975000 -0.38631716 17.483654 -41.840191 -150.43535 -41.884972 -150.45062 -0.63552225 45.0042
14455970000 -0.38414416 17.060347 -41.747513 -151.61435 -41.800167 -151.53806 -0.59543228 44.67627
14464965000 -0.38572785 16.625265 -41.666153 -152.77209 -41.727909 -152.6377 -0.58344817 44.379074
14473960000 -0.38757589 16.169239 -41.581131 -153.58107 -41.676727 -153.455 -0.60327601 43.992626
14482955000 -0.38718703 15.724863 -41.497894 -154.68127 -41.582706 -154.30219 -0.63681185 43.4711
14491950000 -0.38584581 15.260347 -41.422813 -155.56281 -41.53923 -155.04332 -0.66331077 42.850536
14500945000 -0.3851372 14.78311 -41.335468 -156.44989 -41.454136 -155.66199 -0.66624761 42.223061
14509940000 -0.38236997 14.314794 -41.242119 -157.43808 -41.347824 -156.65927 -0.63583297 41.700932
14518935000 -0.38084403 13.887873 -41.145462 -158.54381 -41.221169 -157.61426 -0.59542161 41.340279
14527930000 -0.3814697 13.4556 -41.029533 -159.72383 -41.098942 -158.41826 -0.57329714 41.048897
14536925000 -0.38072902 13.021747 -40.954723 -160.69734 -40.988422 -159.33151 -0.57615626 40.717976
14545920000 -0.3796576 12.58359 -40.860825 -161.80159 -40.887508 -160.50247 -0.60493183 40.269127
14554915000 -0.37995678 12.136649 -40.788895 -163.03194 -40.789097 -161.64731 -0.63787395 39.675419
14563910000 -0.37896806 11.662064 -40.738499 -164.40485 -40.727528 -163.01961 -0.65354317 39.013485
14572905000 -0.37612516 11.205131 -40.769329 -165.41862 -40.730724 -164.07788 -0.6370765 38.413086
14581900000 -0.37664148 10.769244 -40.710228 -166.21176 -40.641647 -164.9547 -0.60112548 37.956623
14590895000 -0.37758055 10.303881 -40.64703 -167.3282 -40.577518 -165.84944 -0.56835866 37.621391
14599890000 -0.37684953 9.8503332 -40.591663 -168.15839 -40.496288 -166.79097 -0.55570281 37.318577
14608885000 -0.37590978 9.4121914 -40.555111 -169.02002 -40.425522 -167.76421 -0.57301414 36.95919
14617880000 -0.37591317 8.9450741 -40.518326 -169.71992 -40.352943 -168.57091 -0.60558349 36.434841
14626875000 -0.37325957 8.4698448 -40.450539 -170.5981 -40.297173 -169.77225 -0.63141924 35.811954
14635870000 -0.37036401 8.0245457 -40.438812 -171.70259 -40.276558 -171.07526 -0.62936336 35.190426
14644865000 -0.37244299 7.5811577 -40.44894 -172.65584 -40.283878 -171.88658 -0.60478961 34.680412
14653860000 -0.37342995 7.1040545 -40.409836 -173.17662 -40.24078 -172.77316 -0.57211041 34.280067
14662855000 -0.3711991 6.6444907 -40.314342 -173.90195 -40.15905 -173.58189 -0.54920334 33.953083
14671850000 -0.36872309 6.2065439 -40.254555 -174.69933 -40.10033 -174.45818 -0.55218244 33.594414
14680845000 -0.36807302 5.7705064 -40.217274 -175.58473 -40.08366 -175.28676 -0.57975233 33.107574
14689840000 -0.36596799 5.3121672 -40.217995 -176.17413 -40.06242 -175.97745 -0.6094408 32.493137
14698835000 -0.36441794 4.9007602 -40.211372 -176.64384 -40.014427 -176.58365 -0.62099516 31.843004
14707830000 -0.36784959 4.4560947 -40.123764 -177.25455 -39.955952 -177.71896 -0.60792142 31.258846
14716825000 -0.3709648 3.9773443 -40.040436 -178.16272 -39.974697 -178.52177 -0.57832813 30.776354
14725820000 -0.37130341 3.5087068 -40.017323 -178.89246 -39.928909 -179.00662 -0.54882795 30.434172
14734815000 -0.36961451 3.0401766 -39.993027 -179.40143 -39.874599 -179.56221 -0.53930777 30.124491
14743810000 -0.37019008 2.5544183 -39.934948 -179.41318 -39.818577 -179.68324 -0.55386448 29.736414
14752805000 -0.36529863 2.0951829 -39.810471 -179.64592 -39.740566 179.84286 -0.58262455 29.231234
14761800000 -0.36609864 1.6763451 -39.682144 179.82352 -39.618694 178.85103 -0.60447425 28.630487
14770795000 -0.36986142 1.216467 -39.592087 179.01831 -39.614788 178.53117 -0.60881567 28.02854
14779790000 -0.37236965 0.73633641 -39.50222 178.44104 -39.538311 178.17384 -0.59201664 27.482975
14788785000 -0.37219509 0.26234046 -39.37569 177.83415 -39.416634 177.40833 -0.56518358 27.050682
14797780000 -0.37096649 -0.20628399 -39.214661 177.47034 -39.280201 177.15604 -0.5456295 26.697773
14806775000 -0.37178758 -0.67217654 -39.111221 176.32878 -39.17403 176.26634 -0.5489381 26.31872
14815770000 -0.3658987 -1.1227038 -38.983402 175.45404 -39.060955 175.84746 -0.56966209 25.855276
14824765000 -0.36644393 -1.5077022 -38.862579 174.53006 -38.886089 174.50386 -0.59650391 25.278742
14833760000 -0.37012327 -1.9674783 -38.857994 173.20229 -38.850975 173.38431 -0.60990196 24.67276
14842755000 -0.3732971 -2.4435284 -38.845936 172.25897 -38.826145 172.51505 -0.60254496 24.08779
14851750000 -0.37275633 -2.9208012 -38.808559 171.60207 -38.778744 171.56224 -0.57715249 23.604446
14860745000 -0.3720727 -3.4043503 -38.744576 171.16769 -38.709362 171.30331 -0.55255228 23.232738
14869740000 -0.37056783 -3.8940532 -38.680782 170.58554 -38.626148 170.92067 -0.54508656 22.890087
14878735000 -0.36311808 -4.3435731 -38.571007 170.49071 -38.472187 170.16629 -0.55835021 22.508186
14887730000 -0.36357713 -4.7571378 -38.449986 169.49236 -38.376911 169.25735 -0.58588207 22.013844
14896725000 -0.36918187 -5.2121058 -38.337254 169.02333 -38.29567 168.46365 -0.60852563 21.422853
14905720000 -0.36915934 -5.685895 -38.265495 168.09474 -38.207542 167.59645 -0.61580831 20.804321
14914715000 -0.36953813 -6.1462173 -38.204372 167.5634 -38.12381 167.17392 -0.60136449 20.245022
14923710000 -0.37078434 -6.6317677 -38.053196 166.85971 -38.041611 166.40579 -0.57589054 19.805717
14932705000 -0.37129158 -7.1301289 -37.960739 166.03789 -37.951977 165.88535 -0.55620474 19.453606
14941700000 -0.36514235 -7.5737543 -37.78931 165.65483 -37.796638 165.47829 -0.55595994 19.107817
14950695000 -0.36855429 -7.9708214 -37.645313 164.5087 -37.650246 164.37917 -0.57175189 18.696737
14959690000 -0.37294224 -8.4308987 -37.543434 163.41045 -37.560436 163.42241 -0.59753126 18.187666
14968685000 -0.37474531 -8.8949966 -37.495216 163.02765 -37.475597 162.60818 -0.61414921 17.580513
14977680000 -0.37671798 -9.3855267 -37.342751 162.10516 -37.315647 161.74265 -0.61172926 16.980043
14986675000 -0.38002035 -9.8854456 -37.234325 160.8985 -37.232258 160.8748 -0.59194779 16.476
14995670000 -0.38064846 -10.413826 -37.118603 160.19421 -37.115463 159.90433 -0.56853956 16.070774
15004665000 -0.37292191 -10.870143 -37.005634 159.25751 -36.997059 158.97247 -0.55738419 15.743962
15013660000 -0.37416151 -11.295931 -36.950272 158.38307 -36.925884 157.82327 -0.56631768 15.382852
15022655000 -0.37685829 -11.759966 -36.861687 157.50632 -36.883442 157.1879 -0.58968335 14.9282
15031650000 -0.3776226 -12.209602 -36.725788 156.6245 -36.775814 156.74725 -0.61606455 14.358591
15040645000 -0.3805736 -12.658942 -36.642971 155.87733 -36.648602 155.67027 -0.62532002 13.744731
15049640000 -0.38480258 -13.14341 -36.570301 155.22238 -36.584351 154.93497 -0.6143803 13.166461
15058635000 -0.38499802 -13.645892 -36.485107 154.44685 -36.505932 154.10226 -0.59220856 12.7081
15067630000 -0.38084316 -14.088448 -36.383377 153.60083 -36.389515 153.56432 -0.57555681 12.332287
15076625000 -0.38389164 -14.513191 -36.25209 152.94017 -36.2724 152.81174 -0.57480061 11.995896
15085620000 -0.38583705 -14.978885 -36.146942 152.32671 -36.116199 152.26137 -0.59653389 11.599273
15094615000 -0.38612989 -15.424881 -35.952335 151.61824 -35.959 151.51315 -0.6237995 11.075449
15103610000 -0.39141253 -15.871649 -35.850937 150.52863 -35.84436 150.41791 -0.64293593 10.461066
15112605000 -0.39240724 -16.386442 -35.731934 149.97176 -35.72113 149.29065 -0.64113235 9.8461847
15121600000 -0.39187202 -16.900003 -35.586716 149.01202 -35.593918 148.44142 -0.62157279 9.3332624
15130595000 -0.38860875 -17.368853 -35.442863 147.86778 -35.455307 147.48532 -0.59725678 8.9479265
15139590000 -0.38958949 -17.841034 -35.299606 146.72925 -35.311394 146.44208 -0.59020585 8.642024
15148585000 -0.38807574 -18.309179 -35.155014 145.64285 -35.207481 145.07701 -0.60243285 8.3044672
15157580000 -0.38478786 -18.73399 -35.026218 144.59346 -35.098579 144.25487 -0.63094121 7.8238306
15166575000 -0.38772646 -19.1628 -34.87252 143.52521 -34.966 143.37965 -0.65519059 7.2177796
15175570000 -0.39075398 -19.630653 -34.801369 142.18959 -34.8591 142.31783 -0.66296846 6.5505223
15184565000 -0.39020765 -20.095438 -34.74836 141.04387 -34.807457 141.1364 -0.64894581 5.9430866
15193560000 -0.39227605 -20.549685 -34.661968 140.2001 -34.704762 140.19135 -0.62212336 5.4944248
15202555000 -0.39789328 -21.040945 -34.594376 139.54166 -34.610111 139.46346 -0.60388786 5.1888075
15211550000 -0.39701307 -21.517544 -34.47369 139.13683 -34.481583 139.08401 -0.60850835 4.9065504
15220545000 -0.39666903 -21.977028 -34.302471 138.24847 -34.276764 138.08002 -0.63360161 4.5414176
15229540000 -0.39868686 -22.439939 -34.101864 137.15802 -34.123264 136.92822 -0.66552943 4.0193267
15238535000 -0.40095231 -22.935318 -33.963924 136.19633 -34.000763 135.87346 -0.68695033 3.3652885
15247530000 -0.39907503 -23.418249 -33.826824 135.13457 -33.85062 134.69855 -0.68603468 2.6960158
15256525000 -0.40455702 -23.902124 -33.655159 134.18924 -33.734913 133.771 -0.66621739 2.1459754
15265520000 -0.40844911 -24.418203 -33.486141 132.91594 -33.583996 132.62558 -0.64404041 1.7673801
15274515000 -0.40802938 -24.921839 -33.352238 131.41933 -33.436268 131.51683 -0.63791144 1.4924955
15283510000 -0.40637925 -25.373102 -33.18837 130.33105 -33.311665 130.40479 -0.64970303 1.1969004
15292505000 -0.40709394 -25.852255 -33.059109 128.91185 -33.167431 129.0424 -0.67702752 0.77123362
15301500000 -0.40454084 -26.316496 -32.959599 127.56673 -33.035629 127.98583 -0.7038008 0.18509197
15310495000 -0.40323856 -26.731329 -32.833057 126.23336 -32.880051 126.83031 -0.71472573 -0.48231745
15319490000 -0.40829554 -27.162653 -32.729504 124.94435 -32.758736 125.49934 -0.70291418 -1.0959805
15328485000 -0.41411465 -27.651917 -32.637169 123.7695 -32.6553 124.19122 -0.67977142 -1.5492462
15337480000 -0.41603434 -28.13825 -32.51387 122.64871 -32.546051 123.03757 -0.6674881 -1.8829261
15346475000 -0.4186863 -28.599981 -32.392178 121.43287 -32.388611 121.80252 -0.66982967 -2.1639977
15355470000 -0.42087439 -29.102747 -32.275471 120.29778 -32.258415 120.57467 -0.69065905 -2.4904964
15364465000 -0.41619447 -29.591597 -32.134071 119.29639 -32.108532 119.31046 -0.71581048 -2.9802306
15373460000 -0.41529828 -30.011896 -31.984812 118.05015 -31.986626 118.02277 -0.73629314 -3.6001453
15382455000 -0.42260161 -30.483179 -31.832565 116.83797 -31.892719 116.95489 -0.73673695 -4.2187448
15391450000 -0.42812368 -30.987814 -31.737114 115.54173 -31.745159 115.74754 -0.72428221 -4.7551413
15400445000 -0.42638654 -31.489679 -31.610428 114.36752 -31.60058 114.55299 -0.70860845 -5.1695347
15409440000 -0.42655161 -31.961737 -31.446436 113.10017 -31.437349 113.17491 -0.7024647 -5.499476
15418435000 -0.42753524 -32.467846 -31.303864 111.70364 -31.303785 111.72981 -0.71233666 -5.8058925
15427430000 -0.4223243 -32.944771 -31.159473 110.35973 -31.166054 110.44621 -0.73629594 -6.2190928
15436425000 -0.42389998 -33.386024 -30.98291 109.02915 -31.013006 108.98336 -0.75397396 -6.7448721
15445420000 -0.43339306 -33.857346 -30.875832 107.4899 -30.870367 107.5845 -0.76484448 -7.3342094
15454415000 -0.43400177 -34.378487 -30.740955 106.09657 -30.74535 106.02337 -0.76220739 -7.9061141
15463410000 -0.43455049 -34.884743 -30.619081 104.56342 -30.637644 104.776 -0.74833071 -8.3777065
15472405000 -0.43512931 -35.384933 -30.474281 103.25187 -30.492722 103.32169 -0.73434341 -8.758049
15481400000 -0.43355611 -35.895416 -30.369579 101.80619 -30.34866 101.7395 -0.73618978 -9.0687389
15490395000 -0.42922911 -36.353886 -30.212463 100.44295 -30.215427 100.30099 -0.74914545 -9.4261122
15499390000 -0.43135077 -36.755985 -30.062929 98.816872 -30.073366 98.876129 -0.76608258 -9.871254
15508385000 -0.44130629 -37.240585 -29.902466 97.254211 -29.92894 97.309685 -0.78488135 -10.391386
15517380000 -0.44813374 -37.754929 -29.783037 95.48938 -29.78825 95.545273 -0.79078203 -10.970124
15526375000 -0.44894317 -38.274361 -29.671341 93.648804 -29.688509 93.679642 -0.78241616 -11.51877
15535370000 -0.4521527 -38.834869 -29.583357 92.225708 -29.606691 92.165901 -0.76878202 -11.961172
15544365000 -0.45056614 -39.38446 -29.464485 90.771278 -29.499325 90.795639 -0.76342958 -12.306794
15553360000 -0.44116503 -39.855717 -29.341696 89.359184 -29.364605 89.419685 -0.76758021 -12.637212
15562355000 -0.44601652 -40.28513 -29.198866 87.7258 -29.222185 88.031433 -0.78027022 -13.029225
15571350000 -0.45452529 -40.767353 -29.041933 86.074409 -29.060545 86.362831 -0.79963571 -13.505855
15580345000 -0.45873687 -41.270332 -28.926056 84.38575 -28.920877 84.556808 -0.81792277 -14.093075
15589340000 -0.46228191 -41.766857 -28.791216 82.632843 -28.794842 82.852928 -0.81755215 -14.68721
15598335000 -0.46625173 -42.293228 -28.698088 80.805435 -28.689939 81.173798 -0.8032788 -15.202157
15607330000 -0.46412277 -42.839493 -28.589918 79.265053 -28.565596 79.446716 -0.78994387 -15.631747
15616325000 -0.45744675 -43.31218 -28.470274 77.610054 -28.438364 77.756874 -0.78449035 -15.982846
15625320000 -0.46286875 -43.757793 -28.357773 75.952751 -28.333189 76.08226 -0.79134822 -16.319061
15634315000 -0.46991137 -44.248116 -28.22574 74.289009 -28.21888 74.41301 -0.81223702 -16.720215
15643310000 -0.47313675 -44.739483 -28.079329 72.504822 -28.068111 72.700928 -0.83609319 -17.260015
15652305000 -0.47986704 -45.208595 -27.964294 70.643585 -27.945602 70.76889 -0.84743577 -17.871218
15661300000 -0.48799145 -45.757198 -27.859415 68.79744 -27.82316 68.920464 -0.8419925 -18.467262
15670295000 -0.48791093 -46.304207 -27.747488 67.016228 -27.715332 67.083443 -0.83196753 -19.007404
15679290000 -0.48540455 -46.790298 -27.636065 65.400047 -27.592628 65.466896 -0.82134074 -19.440744
15688285000 -0.49223101 -47.27914 -27.500206 63.619846 -27.46887 63.565613 -0.82227749 -19.783592
15697280000 -0.49731871 -47.800617 -27.378923 61.840916 -27.349081 61.636753 -0.83849484 -20.14559
15706275000 -0.50071502 -48.286858 -27.233089 59.92886 -27.220135 59.98753 -0.86451119 -20.617081
15715270000 -0.5080393 -48.802673 -27.097008 57.912445 -27.072042 57.895622 -0.8800773 -21.171005
15724265000 -0.51927412 -49.361706 -27.00448 55.820877 -26.975269 55.917145 -0.88536316 -21.762506
15733260000 -0.52280146 -49.913158 -26.89534 54.032539 -26.871643 54.013973 -0.88130713 -22.3368
15742255000 -0.52257317 -50.412312 -26.75934 52.208111 -26.734249 52.200287 -0.8721928 -22.805752
15751250000 -0.53313327 -50.936874 -26.612274 50.180977 -26.584269 50.104187 -0.87171221 -23.155146
15760245000 -0.53853494 -51.46909 -26.502649 48.013138 -26.471626 47.917942 -0.88747686 -23.479202
15769240000 -0.54313654 -51.925526 -26.378714 45.921272 -26.353359 45.869186 -0.91439855 -23.912605
15778235000 -0.55670851 -52.412159 -26.261572 43.784077 -26.247599 43.711243 -0.94029474 -24.447765
15787230000 -0.56551498 -52.957836 -26.139263 41.75148 -26.135284 41.615536 -0.96194398 -25.045671
15796225000 -0.57275957 -53.496574 -26.032242 39.570236 -26.013557 39.479637 -0.96700025 -25.658493
15805220000 -0.58573836 -54.011143 -25.891127 37.392376 -25.879618 37.326145 -0.96129823 -26.181519
15814215000 -0.60052884 -54.550472 -25.765753 35.006538 -25.763624 34.947186 -0.96190906 -26.511911
15823210000 -0.60721821 -55.058208 -25.676329 32.695168 -25.676979 32.753113 -0.97456253 -26.783678
15832205000 -0.61437404 -55.505455 -25.55551 30.564106 -25.539619 30.638094 -0.99787915 -27.134693
15841200000 -0.62925595 -55.978958 -25.41885 28.10372 -25.396183 28.36657 -1.032263 -27.587383
15850195000 -0.64257246 -56.480438 -25.298029 25.632757 -25.264986 25.818544 -1.0652381 -28.145334
15859190000 -0.65288305 -56.940018 -25.18996 23.065102 -25.141804 23.150394 -1.0859057 -28.772408
15868185000 -0.67331433 -57.421532 -25.12269 20.478924 -25.078548 20.431406 -1.0875407 -29.304081
15877180000 -0.6909337 -57.98386 -25.031363 18.048553 -24.994043 18.04933 -1.0832222 -29.663689
15886175000 -0.70509654 -58.500961 -24.927116 15.547043 -24.881865 15.502277 -1.0917737 -29.948973
15895170000 -0.71506083 -58.962276 -24.812395 12.745917 -24.765863 12.746715 -1.1142594 -30.209023
15904165000 -0.72759724 -59.441162 -24.752794 9.9827671 -24.700232 9.9218063 -1.1497482 -30.474218
15913160000 -0.73848373 -59.916279 -24.65963 7.4546604 -24.638268 7.2691751 -1.1901526 -30.867855
15922155000 -0.75178325 -60.320366 -24.560505 4.5151496 -24.542274 4.5059099 -1.2192436 -31.354479
15931150000 -0.77767175 -60.74107 -24.506657 1.5387735 -24.459646 1.4818013 -1.2343203 -31.82052
15940145000 -0.79890108 -61.234642 -24.477659 -1.5248733 -24.423262 -1.6135074 -1.2399392 -32.179298
15949140000 -0.81085151 -61.714436 -24.452524 -4.252636 -24.401094 -4.5572109 -1.2457904 -32.485157
15958135000 -0.82510442 -62.141846 -24.378391 -7.059032 -24.356255 -7.3720956 -1.2553933 -32.724194
15967130000 -0.83638501 -62.588467 -24.31926 -10.077467 -24.315531 -10.249234 -1.2756137 -32.908184
15976125000 -0.84200352 -62.98951 -24.27492 -13.213819 -24.268948 -13.363714 -1.302821 -33.18298
15985120000 -0.85233867 -63.328018 -24.252037 -16.504974 -24.220518 -16.572914 -1.3249642 -33.522911
15994115000 -0.87482792 -63.661995 -24.254189 -19.727755 -24.229197 -19.879576 -1.3306799 -33.850697
16003110000 -0.88733274 -64.071533 -24.281153 -22.89352 -24.262205 -23.149614 -1.3342029 -34.145702
16012105000 -0.89396894 -64.45359 -24.28591 -25.950705 -24.28557 -26.281393 -1.3307105 -34.398045
16021100000 -0.9042393 -64.80555 -24.275803 -29.451855 -24.318825 -29.641144 -1.3259364 -34.556374
16030095000 -0.91123253 -65.225998 -24.355577 -32.893547 -24.384001 -32.975559 -1.3235304 -34.668682
16039090000 -0.90716475 -65.588104 -24.416843 -36.22681 -24.445786 -36.126881 -1.3299035 -34.890022
16048085000 -0.90895563 -65.884506 -24.497389 -39.635387 -24.510849 -39.450249 -1.3348879 -35.162716
16057080000 -0.91577399 -66.237007 -24.602308 -43.018871 -24.615807 -42.948467 -1.3242288 -35.443768
16066075000 -0.9174127 -66.648979 -24.739223 -46.413544 -24.745113 -46.21249 -1.3084538 -35.72794
16075070000 -0.91456211 -67.020493 -24.877174 -49.66119 -24.891474 -49.365437 -1.2801964 -36.032269
16084065000 -0.91082674 -67.400627 -25.050198 -52.807636 -25.046667 -52.460861 -1.2507489 -36.29211
16093060000 -0.90181345 -67.835907 -25.220579 -55.707317 -25.196568 -55.38031 -1.2298756 -36.503586
16102055000 -0.88619483 -68.208031 -25.335455 -58.584068 -25.323673 -58.450794 -1.2160358 -36.727566
16111050000 -0.87870425 -68.537445 -25.519415 -61.961586 -25.489738 -61.691368 -1.1973858 -36.982124
16120045000 -0.87205958 -68.942566 -25.757809 -64.888496 -25.70031 -64.833534 -1.169149 -37.288857
16129040000 -0.85849226 -69.391731 -25.979874 -67.591148 -25.926056 -67.633644 -1.1442331 -37.693916
16138035000 -0.84382868 -69.836899 -26.151079 -70.251198 -26.130854 -70.322021 -1.1125613 -38.132969
16147030000 -0.83361286 -70.300217 -26.338717 -72.835022 -26.316645 -72.95446 -1.0797219 -38.542767
16156025000 -0.81754369 -70.785759 -26.515125 -75.647858 -26.509226 -75.917755 -1.0533235 -38.874615
16165020000 -0.79350209 -71.209587 -26.730625 -78.583038 -26.733311 -78.697227 -1.0245305 -39.238029
16174015000 -0.78031331 -71.630592 -26.985235 -81.115997 -26.978397 -81.375343 -0.9939689 -39.615734
16183010000 -0.76939601 -72.142647 -27.214216 -83.543564 -27.220495 -83.825516 -0.96743429 -40.00914
16192005000 -0.75550312 -72.656227 -27.420742 -85.932144 -27.45627 -86.084511 -0.94566572 -40.450119
16201000000 -0.73876542 -73.124107 -27.652079 -88.43058 -27.666016 -88.551788 -0.91833365 -40.950382
16209995000 -0.72806644 -73.642609 -27.877724 -90.833519 -27.909626 -90.909195 -0.88820189 -41.42524
16218990000 -0.70937735 -74.180565 -28.117313 -93.152519 -28.152418 -93.124084 -0.86511713 -41.898285
16227985000 -0.69055682 -74.644272 -28.336893 -95.551582 -28.371706 -95.456184 -0.84097672 -42.378918
16236980000 -0.68630207 -75.127029 -28.581942 -97.832466 -28.604252 -97.792603 -0.81173521 -42.832947
16245975000 -0.67747557 -75.680672 -28.820715 -100.04834 -28.855116 -100.01416 -0.78886378 -43.249279
16254970000 -0.66244441 -76.25061 -29.088308 -102.04072 -29.087603 -102.17212 -0.77117205 -43.749252
16263965000 -0.65088648 -76.757309 -29.325708 -104.03633 -29.303337 -104.13379 -0.75256169 -44.289593
16272960000 -0.64138407 -77.329582 -29.528654 -106.01221 -29.549652 -106.14794 -0.73459476 -44.817627
16281955000 -0.6258803 -77.922928 -29.761515 -108.15669 -29.763704 -108.28911 -0.71616149 -45.360043
16290950000 -0.6113708 -78.424866 -29.974848 -110.13236 -30.007353 -110.26192 -0.69240052 -45.920238
16299945000 -0.60723841 -78.963562 -30.213343 -112.15974 -30.230562 -112.28666 -0.66330111 -46.408031
16308940000 -0.59552878 -79.569939 -30.451672 -114.36132 -30.485643 -114.43837 -0.64211601 -46.840984
16317935000 -0.58036089 -80.137024 -30.722122 -116.32854 -30.749804 -116.30901 -0.62468868 -47.283287
16326930000 -0.56704438 -80.680016 -30.971382 -117.91245 -31.015272 -117.98467 -0.60917455 -47.746761
16335925000 -0.56094468 -81.269173 -31.232334 -119.30013 -31.245855 -119.51055 -0.60031486 -48.226124
16344920000 -0.55062884 -81.826164 -31.403734 -121.03296 -31.427841 -121.1908 -0.59466934 -48.791725
16353915000 -0.54154396 -82.332489 -31.609253 -123.02615 -31.629751 -123.11571 -0.5787617 -49.425991
16362910000 -0.54209822 -82.909355 -31.854689 -124.94684 -31.87883 -125.0442 -0.55770791 -50.00721
16371905000 -0.5353775 -83.559181 -32.093067 -126.34551 -32.115158 -126.70821 -0.54094112 -50.544918
16380900000 -0.52376336 -84.142265 -32.293461 -128.11063 -32.319229 -128.40154 -0.52188241 -51.057137
16389895000 -0.51856583 -84.726593 -32.507919 -129.88725 -32.557602 -129.99289 -0.50504899 -51.531654
16398890000 -0.50932735 -85.343437 -32.690472 -131.67329 -32.782101 -131.55621 -0.49609599 -52.008636
16407885000 -0.50006145 -85.912521 -32.924824 -133.4173 -32.968639 -133.30482 -0.49576026 -52.569134
16416880000 -0.49889892 -86.444099 -33.161053 -135.17604 -33.147766 -135.10231 -0.48532754 -53.210243
16425875000 -0.50172168 -87.064415 -33.374905 -136.72797 -33.420578 -136.67136 -0.47367311 -53.809967
16434870000 -0.49151176 -87.708778 -33.620445 -138.17053 -33.626213 -138.15828 -0.45705301 -54.385536
16443865000 -0.48315912 -88.313736 -33.783245 -139.78249 -33.807278 -139.68716 -0.43657196 -54.956944
16452860000 -0.47914779 -88.919731 -33.99741 -141.34891 -34.016434 -141.342 -0.41807774 -55.428719
16461855000 -0.47023416 -89.538704 -34.188873 -143.19759 -34.213917 -142.98633 -0.41005734 -55.878685
16470850000 -0.46210137 -90.095879 -34.415829 -144.70651 -34.42495 -144.3139 -0.40902075 -56.388947
16479845000 -0.46548462 -90.654037 -34.608028 -146.22418 -34.617847 -146.03242 -0.40421808 -56.960129
16488840000 -0.46991137 -91.296028 -34.809715 -147.72476 -34.825867 -147.7845 -0.39679921 -57.524044
16497835000 -0.46740815 -91.934433 -35.024128 -149.5641 -35.061539 -149.62193 -0.39063558 -58.152458
16506830000 -0.46093661 -92.534271 -35.22443 -151.02959 -35.279922 -150.85193 -0.37556911 -58.774605
16515825000 -0.46286416 -93.185394 -35.40741 -152.66614 -35.466858 -152.54752 -0.35964715 -59.312149
16524820000 -0.45504698 -93.838081 -35.65089 -154.65685 -35.696781 -153.93477 -0.34896255 -59.804516
16533815000 -0.44620612 -94.416176 -35.906792 -156.10284 -35.904182 -155.85858 -0.33978641 -60.319805
16542810000 -0.45105091 -95.000366 -36.100021 -157.64828 -36.098373 -157.25974 -0.3341943 -60.853893
16551805000 -0.45078295 -95.634964 -36.28529 -159.25073 -36.303932 -158.62967 -0.33206007 -61.395771
16560800000 -0.44890413 -96.276268 -36.552879 -160.9799 -36.5056 -160.72424 -0.33012879 -61.99791
16569795000 -0.4442504 -96.846855 -36.81525 -162.12193 -36.763374 -161.89053 -0.32024264 -62.616196
16578790000 -0.44907749 -97.504395 -36.994717 -163.27534 -36.977573 -163.25191 -0.30703598 -63.19519
16587785000 -0.44218007 -98.122757 -37.197193 -164.8389 -37.174355 -164.79808 -0.29596582 -63.720203
16596780000 -0.44072837 -98.721558 -37.433773 -166.51637 -37.39727 -165.96584 -0.28679329 -64.247551
16605775000 -0.44531348 -99.33387 -37.681065 -167.7847 -37.631966 -167.68553 -0.28060892 -64.745171
16614770000 -0.44763726 -100.00227 -37.919899 -169.21037 -37.887444 -169.51752 -0.28307885 -65.25473
16623765000 -0.44724444 -100.6383 -38.111973 -170.32617 -38.108028 -170.68292 -0.28999752 -65.865089
16632760000 -0.44752821 -101.282 -38.335247 -171.74678 -38.347977 -171.91827 -0.28528839 -66.533401
16641755000 -0.44856197 -101.9593 -38.520252 -173.03928 -38.498039 -173.29012 -0.2798681 -67.151939
16650750000 -0.44344416 -102.58793 -38.751606 -174.23953 -38.717152 -174.44189 -0.26694617 -67.769127
16659745000 -0.44429168 -103.16818 -38.911842 -175.97023 -38.905304 -176.12296 -0.25204825 -68.313828
16668740000 -0.45115373 -103.83019 -39.152386 -177.35199 -39.153255 -177.44646 -0.23718734 -68.754837
16677735000 -0.45154375 -104.48878 -39.407764 -178.67012 -39.433098 -178.95964 -0.23882963 -69.205208
16686730000 -0.4512307 -105.12743 -39.611385 -179.56909 -39.660698 179.71611 -0.24725676 -69.749336
16695725000 -0.45836028 -105.765 -39.816795 178.78224 -39.89006 178.50256 -0.25194046 -70.359505
16704720000 -0.4569124 -106.44964 -40.03561 177.26762 -40.136131 177.36043 -0.25291029 -70.991943
16713715000 -0.45350048 -107.09268 -40.243748 176.22673 -40.320198 176.06946 -0.24879925 -71.676331
16722710000 -0.45628351 -107.69513 -40.515862 174.56876 -40.565472 174.77997 -0.22928862 -72.28923
16731705000 -0.4656578 -108.35429 -40.804749 173.31483 -40.838657 173.68918 -0.21294416 -72.805466
16740700000 -0.46800318 -109.05612 -41.03146 172.0417 -41.072651 172.47417 -0.21212347 -73.288399
16749695000 -0.46574196 -109.70892 -41.296757 171.11404 -41.318268 171.4295 -0.21712261 -73.812187
16758690000 -0.47308969 -110.37312 -41.523136 170.01196 -41.53447 170.51685 -0.2252495 -74.348137
16767685000 -0.47358793 -111.05644 -41.761246 168.85237 -41.766495 169.30917 -0.23408492 -74.927795
16776680000 -0.46912342 -111.66616 -42.019012 167.90288 -42.039967 168.32523 -0.22924933 -75.598495
16785675000 -0.47468075 -112.27885 -42.289494 166.90785 -42.325123 167.3674 -0.21117085 -76.197311
16794670000 -0.4836646 -112.94418 -42.565464 166.101 -42.594585 166.68634 -0.19315462 -76.721474
16803665000 -0.48580229 -113.65922 -42.795097 165.40273 -42.824345 165.87146 -0.18689291 -77.206619
16812660000 -0.48904386 -114.32041 -43.041142 164.5677 -43.059895 165.01698 -0.18843383 -77.669243
16821655000 -0.49374238 -115.00938 -43.280663 163.7926 -43.283779 164.24194 -0.19942699 -78.157341
16830650000 -0.49262446 -115.72494 -43.555691 163.20851 -43.560566 163.65027 -0.21815494 -78.728226
16839645000 -0.49004668 -116.34643 -43.828663 162.8223 -43.825153 163.17239 -0.22583134 -79.446098
16848640000 -0.49482924 -116.97191 -44.081322 162.21156 -44.062313 162.68587 -0.21187803 -80.151268
16857635000 -0.50867742 -117.69484 -44.316662 161.69287 -44.312832 162.27457 -0.19610226 -80.795258
16866630000 -0.51553798 -118.40388 -44.59079 161.41998 -44.567085 161.61351 -0.17826372 -81.35096
16875625000 -0.51859993 -119.08006 -44.839142 161.16371 -44.812614 161.50966 -0.16909234 -81.833656
16884620000 -0.52682441 -119.79552 -45.085495 160.95728 -45.094208 161.49744 -0.17638966 -82.24781
16893615000 -0.52677852 -120.53172 -45.304504 161.21361 -45.335529 161.72203 -0.19985279 -82.764664
16902610000 -0.53186035 -121.17699 -45.524002 161.29134 -45.517384 161.71785 -0.21475437 -83.444008
16911605000 -0.54093087 -121.81306 -45.718159 161.35551 -45.716152 161.78561 -0.2100212 -84.156807
16920600000 -0.55247849 -122.52715 -45.903065 161.54486 -45.92691 161.64503 -0.19611688 -84.874992
16929595000 -0.55926168 -123.23264 -46.101353 161.78864 -46.130371 161.73955 -0.1700304 -85.520653
16938590000 -0.56636691 -123.91595 -46.267025 161.86002 -46.271088 162.0594 -0.1469783 -86.010162
16947585000 -0.5739491 -124.65678 -46.437691 162.183 -46.452721 162.42195 -0.14887935 -86.362923
16956580000 -0.57197309 -125.36768 -46.627773 162.5616 -46.692284 162.91721 -0.17124167 -86.762886
16965575000 -0.57345545 -125.98645 -46.809048 163.38945 -46.821339 163.78273 -0.1964974 -87.308701
16974570000 -0.58371377 -126.62588 -46.958084 164.06302 -46.970192 164.54375 -0.20798947 -87.996017
16983565000 -0.59746593 -127.3529 -47.04649 164.90385 -47.095997 164.94611 -0.20605044 -88.786903
16992560000 -0.6070202 -128.06769 -47.124325 165.63988 -47.183434 165.82085 -0.18529795 -89.603683
17001555000 -0.61490697 -128.7691 -47.16869 166.27121 -47.197712 166.30286 -0.15290301 -90.250725
17010550000 -0.62107074 -129.55722 -47.223644 166.6739 -47.257217 166.76311 -0.14240612 -90.665787
17019545000 -0.62215054 -130.27266 -47.291805 167.26389 -47.366108 167.68159 -0.15034521 -91.047806
17028540000 -0.62948698 -130.90442 -47.34811 167.96745 -47.446426 169.07755 -0.17282042 -91.477898
17037535000 -0.6448577 -131.60759 -47.393806 168.85196 -47.452438 169.84309 -0.1946179 -92.064377
17046530000 -0.65546691 -132.33609 -47.379807 169.58138 -47.428535 170.72897 -0.20812063 -92.837006
17055525000 -0.66683972 -133.04779 -47.38821 170.52115 -47.420322 171.74785 -0.19306748 -93.706535
17064520000 -0.67784899 -133.77885 -47.363266 171.34187 -47.326939 172.45308 -0.16148137 -94.436188
17073515000 -0.68421519 -134.57684 -47.287399 172.08266 -47.233456 173.32167 -0.14100872 -94.957695
17082510000 -0.68860042 -135.28215 -47.222012 172.96344 -47.19416 173.99498 -0.14006169 -95.361237
17091505000 -0.69892675 -135.9781 -47.139797 173.45709 -47.148605 174.81822 -0.15896201 -95.741356
17100500000 -0.70973063 -136.71921 -47.048962 174.13383 -47.05653 175.63326 -0.18738937 -96.231064
17109495000 -0.71770948 -137.45309 -46.980751 174.71974 -46.918335 176.42827 -0.21652016 -96.95829
17118490000 -0.72950447 -138.17487 -46.887367 175.45757 -46.772053 177.02516 -0.21141055 -97.890617
17127485000 -0.74473983 -138.9472 -46.803459 176.29886 -46.588985 177.92729 -0.18464723 -98.721313
17136480000 -0.74891907 -139.72897 -46.618664 177.24858 -46.416416 178.84558 -0.15624714 -99.39476
17145475000 -0.75501156 -140.45038 -46.473885 178.17049 -46.162346 179.39639 -0.13709037 -99.879723
17154470000 -0.76898688 -141.18315 -46.289597 178.83701 -45.964554 179.44505 -0.13507244 -100.16991
17163465000 -0.77491015 -141.92552 -46.041519 179.27026 -45.80917 179.52115 -0.16180646 -100.49636
17172460000 -0.78408253 -142.67194 -45.797974 179.6951 -45.564896 179.74686 -0.19916709 -101.08891
17181455000 -0.79514104 -143.36557 -45.516605 179.79466 -45.296734 179.45309 -0.2159469 -101.93871
17190450000 -0.80979711 -144.14645 -45.253704 179.4037 -45.099522 178.95036 -0.20857391 -102.83825
17199445000 -0.81641614 -144.92398 -45.036869 179.02959 -44.959824 178.91493 -0.18820837 -103.69222
17208440000 -0.82563126 -145.66711 -44.882679 179.0114 -44.822277 179.10216 -0.15752277 -104.34592
17217435000 -0.84088999 -146.4314 -44.691261 178.98697 -44.632549 179.14603 -0.14282636 -104.73345
17226430000 -0.85148668 -147.2249 -44.478962 179.05511 -44.403545 179.19559 -0.1593374 -105.02333
17235425000 -0.86068135 -147.98172 -44.243874 178.93225 -44.167328 179.10043 -0.18871337 -105.49817
17244420000 -0.88096023 -148.70383 -44.01363 179.02849 -43.841122 179.15041 -0.2153302 -106.18206
17253415000 -0.89109308 -149.49916 -43.694691 178.97798 -43.52824 178.97346 -0.22544608 -107.04516
17262410000 -0.9009769 -150.30255 -43.398518 178.47621 -43.272449 178.07939 -0.21556468 -107.99191
17271405000 -0.91182268 -151.06836 -43.121342 177.79819 -43.071796 177.57265 -0.18468262 -108.81184
17280400000 -0.92586732 -151.86221 -42.867577 177.07492 -42.816402 176.97984 -0.15830931 -109.33165
17289395000 -0.9389472 -152.68083 -42.618271 176.59435 -42.521477 176.37524 -0.15694086 -109.68655
17298390000 -0.94876033 -153.44485 -42.370041 175.91841 -42.258224 175.45386 -0.17253463 -110.05523
17307385000 -0.96460503 -154.24097 -42.118458 175.14546 -42.015121 174.47601 -0.19932128 -110.55336
17316380000 -0.97789532 -155.05534 -41.883133 174.32072 -41.794846 174.11819 -0.22649972 -111.28053
17325375000 -0.98693907 -155.84656 -41.639862 173.76262 -41.582489 173.33507 -0.23785418 -112.24475
17334370000 -1.0022011 -156.62212 -41.371021 173.00049 -41.335426 172.34003 -0.22612149 -113.20076
17343365000 -1.0220424 -157.43748 -41.112122 172.07271 -41.088612 171.28249 -0.20344189 -113.93755
17352360000 -1.038421 -158.29594 -40.877636 170.69316 -40.925739 170.18301 -0.19087 -114.46648
17361355000 -1.0537184 -159.11766 -40.697491 169.74455 -40.72868 169.63768 -0.18791616 -114.86916
17370350000 -1.0685786 -159.95166 -40.470848 169.11259 -40.446167 169.24959 -0.20408568 -115.29314
17379345000 -1.0823283 -160.77579 -40.228405 168.20042 -40.218208 168.39468 -0.23565389 -115.88976
17388340000 -1.0938395 -161.55348 -40.020569 167.34772 -40.00071 167.5551 -0.2548075 -116.77679
17397335000 -1.108423 -162.3192 -39.788918 166.51004 -39.685322 166.50771 -0.253461 -117.72633
17406330000 -1.1305319 -163.10902 -39.510674 165.46152 -39.420864 165.10297 -0.24170719 -118.56316
17415325000 -1.1509815 -163.9362 -39.245785 164.26505 -39.207306 163.59399 -0.22084968 -119.2265
17424320000 -1.1688272 -164.76935 -38.99839 162.92415 -39.008919 162.25105 -0.20890798 -119.67194
17433315000 -1.1878104 -165.63167 -38.805313 161.25505 -38.833576 160.98691 -0.21734005 -120.00565
17442310000 -1.1985356 -166.49532 -38.6241 159.92685 -38.665817 159.99625 -0.24876389 -120.51221
17451305000 -1.2112767 -167.32175 -38.476597 158.90576 -38.471794 158.9178 -0.28147194 -121.30281
17460300000 -1.2343936 -168.13235 -38.282337 158.07327 -38.289459 157.61574 -0.29695079 -122.30737
17469295000 -1.2542431 -168.97894 -38.062279 156.89612 -38.097252 156.35745 -0.29878166 -123.29095
17478290000 -1.277105 -169.8511 -37.891083 155.59274 -37.920834 155.11749 -0.28422922 -124.1674
17487285000 -1.2948176 -170.71498 -37.707397 154.55862 -37.742081 154.1151 -0.26035076 -124.75972
17496280000 -1.3121829 -171.60858 -37.528271 153.49658 -37.553154 153.13312 -0.25286666 -125.13973
17505275000 -1.326601 -172.47896 -37.288902 152.51027 -37.344166 152.05939 -0.27161837 -125.54923
17514270000 -1.3445193 -173.28754 -37.062439 151.34601 -37.143467 150.93445 -0.29533985 -126.14006
17523265000 -1.3650032 -174.1021 -36.859173 149.98946 -36.945988 149.44553 -0.31984389 -126.93031
17532260000 -1.3896209 -174.96025 -36.710114 148.5345 -36.796421 148.06459 -0.33871499 -127.868
17541255000 -1.4152052 -175.82895 -36.555401 147.5959 -36.64304 146.96768 -0.33596933 -128.82492
17550250000 -1.439683 -176.689 -36.384605 146.07475 -36.514141 145.80835 -0.32227156 -129.57011
17559245000 -1.4605204 -177.59688 -36.222157 145.50018 -36.303913 144.90695 -0.31465364 -130.06464
17568240000 -1.4774638 -178.45657 -36.053448 144.2334 -36.130409 143.6407 -0.32545659 -130.53421
17577235000 -1.4986098 -179.29735 -35.863525 143.23804 -35.96006 142.76096 -0.34792307 -131.1087
17586230000 -1.5234351 179.8588 -35.669323 141.80669 -35.788136 141.73021 -0.37948725 -131.86832
17595225000 -1.5496106 178.995 -35.548626 140.97194 -35.59306 140.94029 -0.41005391 -132.83684
17604220000 -1.5749418 178.12027 -35.36797 139.97151 -35.37458 139.84631 -0.41618904 -133.88893
17613215000 -1.5983512 177.24675 -35.215965 139.04089 -35.144573 138.37689 -0.40367943 -134.74365
17622210000 -1.6175324 176.34811 -34.981915 137.9649 -34.97007 137.39079 -0.38586619 -135.37808
17631205000 -1.6335595 175.4964 -34.735271 136.89442 -34.76392 135.88097 -0.38022971 -135.85205
17640200000 -1.6502916 174.64116 -34.536827 135.29973 -34.588646 134.03938 -0.39276934 -136.30605
17649195000 -1.6716938 173.74918 -34.362354 133.72697 -34.441608 132.7476 -0.42356125 -136.86394
17658190000 -1.6946797 172.85829 -34.201126 132.36485 -34.284115 131.07964 -0.4687719 -137.73193
17667185000 -1.7177161 171.94533 -34.017551 130.86024 -34.218861 129.75613 -0.49489218 -138.81352
17676180000 -1.7462107 170.97505 -33.89764 129.6008 -34.147831 128.79266 -0.50013697 -139.84988
17685175000 -1.7684931 170.01175 -33.818405 128.38084 -34.039558 127.96806 -0.48858875 -140.68488
17694170000 -1.7933408 169.07924 -33.713638 127.54284 -33.90995 127.10552 -0.47265762 -141.31664
17703165000 -1.8175853 168.18752 -33.521664 126.5745 -33.737858 126.11456 -0.46975619 -141.7858
17712160000 -1.8435901 167.28337 -33.357616 125.35334 -33.590809 125.13207 -0.48971519 -142.26599
17721155000 -1.8705441 166.39824 -33.211887 124.33489 -33.399754 124.22337 -0.53563988 -142.96623
17730150000 -1.8994887 165.52763 -33.01265 123.18705 -33.241478 123.32894 -0.57363921 -143.93248
17739145000 -1.9282416 164.59946 -32.872341 122.19905 -33.048714 122.29488 -0.59307641 -144.94753
17748140000 -1.9527 163.63319 -32.678829 121.12199 -32.872852 121.13058 -0.5992161 -145.90025
17757135000 -1.9796427 162.67827 -32.511749 119.84203 -32.73698 120.05152 -0.5848403 -146.66122
17766130000 -2.0030415 161.73053 -32.333229 118.78005 -32.551514 118.93739 -0.57414317 -147.22795
17775125000 -2.0281804 160.79486 -32.1563 117.65789 -32.396797 118.19625 -0.59272897 -147.70705
17784120000 -2.0565627 159.88419 -31.957108 116.22619 -32.167171 116.79253 -0.62818938 -148.34706
17793115000 -2.0895019 158.97818 -31.791843 114.59407 -32.012245 115.48584 -0.66842639 -149.21182
17802110000 -2.1201189 158.04736 -31.719557 113.39915 -31.858774 114.50545 -0.70044792 -150.18481
17811105000 -2.1489246 157.11064 -31.574911 112.65391 -31.70862 113.67422 -0.7152037 -151.22148
17820100000 -2.1783423 156.15738 -31.373869 111.51316 -31.49015 112.448 -0.70789111 -152.16081
17829095000 -2.2108395 155.20081 -31.170053 110.1974 -31.287186 111.20728 -0.69706452 -152.84369
17838090000 -2.235348 154.25729 -31.002546 108.80513 -31.101917 109.65239 -0.70716906 -153.39645
17847085000 -2.2595022 153.32295 -30.890877 107.32751 -30.965567 108.17491 -0.73360157 -153.98216
17856080000 -2.2864606 152.36548 -30.748463 105.9606 -30.855091 106.75452 -0.76945657 -154.72314
17865075000 -2.313122 151.40022 -30.621984 104.62506 -30.745848 105.74799 -0.81680226 -155.63135
17874070000 -2.3424652 150.42413 -30.50551 103.50399 -30.634604 104.46577 -0.847404 -156.66287
17883065000 -2.3785217 149.44943 -30.401947 102.73315 -30.507608 103.72303 -0.85791188 -157.73155
17892060000 -2.4097679 148.50226 -30.274473 101.80389 -30.340929 102.79802 -0.85277903 -158.59618
17901055000 -2.4347055 147.52344 -30.069099 100.65284 -30.127464 101.82299 -0.86230099 -159.30246
17910050000 -2.4638166 146.55005 -29.894413 99.235092 -29.952734 100.25199 -0.87544477 -159.94409
17919045000 -2.4963579 145.57918 -29.764591 97.917847 -29.842106 99.095016 -0.90347558 -160.59972
17928040000 -2.5278766 144.63197 -29.636492 96.815689 -29.706188 97.868385 -0.94248623 -161.38043
17937035000 -2.5627637 143.69794 -29.506721 95.713562 -29.546833 96.922234 -0.98156357 -162.32176
17946030000 -2.6033852 142.75461 -29.367952 94.939651 -29.367716 95.847122 -1.0068974 -163.3362
17955025000 -2.6393249 141.80983 -29.210312 93.700668 -29.198763 94.606628 -1.0154082 -164.27698
17964020000 -2.6702709 140.82036 -29.04804 92.52549 -29.073914 93.437302 -1.0279343 -165.11166
17973015000 -2.6982541 139.81693 -28.896524 91.360733 -28.892199 92.349007 -1.0379035 -165.87897
17982010000 -2.7243888 138.81119 -28.752033 90.263672 -28.725262 90.842918 -1.064419 -166.55891
17991005000 -2.7480597 137.86073 -28.578308 88.969261 -28.592453 89.454826 -1.1044397 -167.3069
18000000000 -2.7726152 136.90012 -28.408627 87.461678 -28.483139 88.084946 -1.1487074 -168.19505
