! hatab_megtron7_step30_1p5mm: multiline TRL calibrated (TUGMultilineTRL, scikit-rf 2.1.0)
! raw data ZiadHatab/verification-multiline-trl-calibration @ 021e735, mean of the repeated sweeps
! reference impedance: characteristic impedance of the 94 um 50 Ohm line,
! NOT 50 Ohm; the R value below is a placeholder required by the format
# Hz S RI R 50
1000000000.000000 -3.236526724e-03 -3.719179586e-02 +9.940313996e-01 -9.289713150e-02 +9.942579322e-01 -9.364341201e-02 -3.660545407e-03 -3.870490341e-02
1500000000.000000 -7.747900630e-03 -5.633755351e-02 +9.873002268e-01 -1.381346546e-01 +9.867862850e-01 -1.392307933e-01 -8.665756621e-03 -5.489319432e-02
2000000000.000000 -1.550028258e-02 -7.436729750e-02 +9.780686324e-01 -1.831103711e-01 +9.775605904e-01 -1.832185006e-01 -1.587136341e-02 -7.242345547e-02
2500000000.000000 -2.162163818e-02 -8.739056188e-02 +9.669301873e-01 -2.285117761e-01 +9.669188852e-01 -2.280762054e-01 -2.359635286e-02 -8.957859215e-02
3000000000.000000 -2.791271329e-02 -1.022047952e-01 +9.537009669e-01 -2.711876388e-01 +9.536604267e-01 -2.717005563e-01 -3.218945580e-02 -1.054326953e-01
3500000000.000000 -3.743380118e-02 -1.192117148e-01 +9.380834047e-01 -3.137738413e-01 +9.380442460e-01 -3.140367372e-01 -4.279355788e-02 -1.179793728e-01
4000000000.000000 -4.900268335e-02 -1.321655836e-01 +9.208725685e-01 -3.547910970e-01 +9.203742463e-01 -3.544344023e-01 -5.462787787e-02 -1.289368773e-01
4500000000.000000 -6.061838425e-02 -1.415535843e-01 +9.018240296e-01 -3.941894860e-01 +9.013829502e-01 -3.942918570e-01 -6.855382494e-02 -1.422351632e-01
5000000000.000000 -7.025587577e-02 -1.510922079e-01 +8.813003021e-01 -4.324531715e-01 +8.810535313e-01 -4.323654729e-01 -8.003825646e-02 -1.514450724e-01
5500000000.000000 -8.132393498e-02 -1.614747570e-01 +8.589856864e-01 -4.701046519e-01 +8.589039676e-01 -4.692805625e-01 -9.340873269e-02 -1.570337535e-01
6000000000.000000 -9.586784180e-02 -1.696081443e-01 +8.354337581e-01 -5.059246494e-01 +8.361332444e-01 -5.052231826e-01 -1.077696002e-01 -1.621819101e-01
6500000000.000000 -1.105662418e-01 -1.760212493e-01 +8.100855125e-01 -5.393784069e-01 +8.101834306e-01 -5.390604767e-01 -1.247696094e-01 -1.682035780e-01
7000000000.000000 -1.205710661e-01 -1.775500586e-01 +7.841459295e-01 -5.719941790e-01 +7.840918455e-01 -5.721944110e-01 -1.374530501e-01 -1.702025026e-01
7500000000.000000 -1.337773597e-01 -1.831594397e-01 +7.568303196e-01 -6.040130110e-01 +7.563550027e-01 -6.030302164e-01 -1.520458156e-01 -1.712100789e-01
8000000000.000000 -1.456142850e-01 -1.859735365e-01 +7.284716886e-01 -6.347337316e-01 +7.288022992e-01 -6.338599762e-01 -1.644327460e-01 -1.697343542e-01
8500000000.000000 -1.598384345e-01 -1.860211115e-01 +6.998921367e-01 -6.625768645e-01 +6.995271733e-01 -6.618162621e-01 -1.777337752e-01 -1.672088265e-01
9000000000.000000 -1.714331632e-01 -1.810049862e-01 +6.700036416e-01 -6.904584953e-01 +6.701059156e-01 -6.899558870e-01 -1.918804391e-01 -1.648844732e-01
9500000000.000000 -1.816403548e-01 -1.802417202e-01 +6.386401907e-01 -7.161839885e-01 +6.389149229e-01 -7.153910762e-01 -2.042599595e-01 -1.602014972e-01
10000000000.000000 -1.941955061e-01 -1.802665193e-01 +6.062791652e-01 -7.417765502e-01 +6.069843208e-01 -7.412739231e-01 -2.152634026e-01 -1.553568373e-01
10500000000.000000 -2.092564700e-01 -1.770182931e-01 +5.731745645e-01 -7.649846127e-01 +5.738284480e-01 -7.641173618e-01 -2.273045922e-01 -1.499228169e-01
11000000000.000000 -2.189644475e-01 -1.666405001e-01 +5.391242096e-01 -7.867938588e-01 +5.395889516e-01 -7.854741314e-01 -2.389780768e-01 -1.427314685e-01
11500000000.000000 -2.293747808e-01 -1.653195798e-01 +5.051675019e-01 -8.064950931e-01 +5.055480131e-01 -8.056196996e-01 -2.489586195e-01 -1.345090763e-01
12000000000.000000 -2.402508124e-01 -1.584403717e-01 +4.696095393e-01 -8.252920872e-01 +4.705175360e-01 -8.254603327e-01 -2.600042466e-01 -1.271077907e-01
12500000000.000000 -2.509018147e-01 -1.484121567e-01 +4.335904574e-01 -8.442919378e-01 +4.344665908e-01 -8.435884659e-01 -2.683990021e-01 -1.181005954e-01
13000000000.000000 -2.625820629e-01 -1.362928962e-01 +3.973927346e-01 -8.595408533e-01 +3.983479609e-01 -8.589378153e-01 -2.770159110e-01 -1.082612919e-01
13500000000.000000 -2.714652630e-01 -1.286063185e-01 +3.602147007e-01 -8.728316367e-01 +3.602076949e-01 -8.716764696e-01 -2.844633863e-01 -9.818166571e-02
14000000000.000000 -2.801374226e-01 -1.196546159e-01 +3.214686958e-01 -8.864496890e-01 +3.223083903e-01 -8.863916861e-01 -2.937134906e-01 -8.831801458e-02
14500000000.000000 -2.903714423e-01 -1.079455417e-01 +2.826727041e-01 -8.990477933e-01 +2.840738690e-01 -8.983144912e-01 -3.004418672e-01 -7.875639437e-02
15000000000.000000 -2.999269729e-01 -9.478282608e-02 +2.443051390e-01 -9.067212553e-01 +2.452422235e-01 -9.067928618e-01 -3.119351890e-01 -6.617287462e-02
15500000000.000000 -3.066340991e-01 -7.997123968e-02 +2.040133048e-01 -9.152401369e-01 +2.050344974e-01 -9.143528000e-01 -3.152223458e-01 -5.357953483e-02
16000000000.000000 -3.120519612e-01 -6.729574695e-02 +1.652489327e-01 -9.208126788e-01 +1.655657783e-01 -9.205470046e-01 -3.196867838e-01 -4.482457918e-02
16500000000.000000 -3.246203979e-01 -5.662004616e-02 +1.268398484e-01 -9.265681899e-01 +1.275610447e-01 -9.256336611e-01 -3.283426777e-01 -3.507714129e-02
17000000000.000000 -3.332134483e-01 -3.860055562e-02 +8.488332742e-02 -9.290268101e-01 +8.582077797e-02 -9.271522710e-01 -3.332916404e-01 -1.818732925e-02
17500000000.000000 -3.356130291e-01 -2.059858017e-02 +4.299924544e-02 -9.270649282e-01 +4.320903189e-02 -9.255707637e-01 -3.389425449e-01 -5.984053218e-03
18000000000.000000 -3.393582890e-01 -4.333481963e-03 +4.921831109e-03 -9.295103757e-01 +5.888148155e-03 -9.287347762e-01 -3.421846484e-01 +4.895955609e-03
18500000000.000000 -3.478063799e-01 +5.174016724e-03 -3.185371322e-02 -9.291990517e-01 -3.059862536e-02 -9.289632299e-01 -3.517196897e-01 +1.662017505e-02
19000000000.000000 -3.548779284e-01 +2.233405733e-02 -7.320240457e-02 -9.220495893e-01 -7.178289751e-02 -9.217946138e-01 -3.528150924e-01 +3.530037331e-02
19500000000.000000 -3.592181288e-01 +4.633640041e-02 -1.117582367e-01 -9.163773815e-01 -1.104352988e-01 -9.162338269e-01 -3.547052315e-01 +4.754738851e-02
20000000000.000000 -3.564922201e-01 +6.311418055e-02 -1.504948601e-01 -9.085633098e-01 -1.483363749e-01 -9.071885654e-01 -3.587447832e-01 +6.012228953e-02
20500000000.000000 -3.591992097e-01 +7.586357163e-02 -1.884675478e-01 -9.006511229e-01 -1.869273578e-01 -8.986343852e-01 -3.626456809e-01 +7.649552218e-02
21000000000.000000 -3.669589793e-01 +9.268820391e-02 -2.238848259e-01 -8.890098902e-01 -2.225072478e-01 -8.880001876e-01 -3.700664446e-01 +9.435179065e-02
21500000000.000000 -3.616624860e-01 +1.183180354e-01 -2.620525744e-01 -8.753851921e-01 -2.601168467e-01 -8.753138278e-01 -3.643743505e-01 +1.089639008e-01
22000000000.000000 -3.539927505e-01 +1.341840656e-01 -2.951252923e-01 -8.609335625e-01 -2.944167898e-01 -8.610024319e-01 -3.680018154e-01 +1.217547408e-01
22500000000.000000 -3.596885002e-01 +1.449978409e-01 -3.293791921e-01 -8.454069245e-01 -3.270694780e-01 -8.454739811e-01 -3.725234123e-01 +1.364209942e-01
23000000000.000000 -3.626779653e-01 +1.663644280e-01 -3.657906073e-01 -8.289889708e-01 -3.640116345e-01 -8.292669741e-01 -3.691987335e-01 +1.564182362e-01
23500000000.000000 -3.555800695e-01 +1.910112278e-01 -3.971131905e-01 -8.093476241e-01 -3.960499811e-01 -8.097556068e-01 -3.649718058e-01 +1.715053201e-01
24000000000.000000 -3.458570834e-01 +2.067774177e-01 -4.282945783e-01 -7.881311662e-01 -4.265022410e-01 -7.888081296e-01 -3.672257957e-01 +1.877500447e-01
24500000000.000000 -3.416114968e-01 +2.197858096e-01 -4.589059817e-01 -7.687957133e-01 -4.580021299e-01 -7.694759245e-01 -3.682979531e-01 +2.067727241e-01
25000000000.000000 -3.435010026e-01 +2.347395301e-01 -4.891984245e-01 -7.479302025e-01 -4.889236353e-01 -7.477310823e-01 -3.620654644e-01 +2.243628085e-01
25500000000.000000 -3.380178259e-01 +2.612855158e-01 -5.183990517e-01 -7.252353947e-01 -5.168679242e-01 -7.256291605e-01 -3.554916637e-01 +2.390337671e-01
26000000000.000000 -3.221748889e-01 +2.805061886e-01 -5.451359703e-01 -7.024921353e-01 -5.428369331e-01 -7.035377146e-01 -3.565102111e-01 +2.537600046e-01
26500000000.000000 -3.160411783e-01 +2.897932516e-01 -5.680932212e-01 -6.778709329e-01 -5.674521345e-01 -6.784623289e-01 -3.512541556e-01 +2.712035427e-01
27000000000.000000 -3.172020129e-01 +3.075628024e-01 -5.945795146e-01 -6.515097377e-01 -5.935773906e-01 -6.520398067e-01 -3.403923682e-01 +2.884933258e-01
27500000000.000000 -3.038724652e-01 +3.277490609e-01 -6.185774756e-01 -6.268169684e-01 -6.177409845e-01 -6.274309559e-01 -3.321137452e-01 +3.043062326e-01
28000000000.000000 -2.874294590e-01 +3.503462769e-01 -6.385938561e-01 -5.997213924e-01 -6.383516944e-01 -5.995278353e-01 -3.284447111e-01 +3.159162756e-01
28500000000.000000 -2.695569641e-01 +3.557414892e-01 -6.590834163e-01 -5.747019599e-01 -6.583414394e-01 -5.752891890e-01 -3.194121704e-01 +3.303454857e-01
29000000000.000000 -2.695198882e-01 +3.729408737e-01 -6.826229591e-01 -5.461395017e-01 -6.820239798e-01 -5.472516032e-01 -3.064408519e-01 +3.472186547e-01
29500000000.000000 -2.592029147e-01 +3.913202501e-01 -6.978725757e-01 -5.175116614e-01 -6.961440246e-01 -5.192445271e-01 -2.925569309e-01 +3.614950930e-01
30000000000.000000 -2.354404993e-01 +4.004187281e-01 -7.184247034e-01 -4.909638783e-01 -7.167414818e-01 -4.920535018e-01 -2.840533288e-01 +3.697570448e-01
30500000000.000000 -2.177453147e-01 +4.117754391e-01 -7.427541198e-01 -4.488337717e-01 -7.387225161e-01 -4.564555844e-01 -2.680134368e-01 +3.851987548e-01
31000000000.000000 -2.020674907e-01 +4.210367073e-01 -7.581928851e-01 -4.196028500e-01 -7.534804418e-01 -4.284635757e-01 -2.546460108e-01 +3.957305501e-01
31500000000.000000 -1.876848469e-01 +4.295986473e-01 -7.739450690e-01 -3.894356423e-01 -7.683860499e-01 -4.007086547e-01 -2.403546052e-01 +4.052424607e-01
32000000000.000000 -1.706462738e-01 +4.364574148e-01 -7.871172322e-01 -3.618394058e-01 -7.832557056e-01 -3.712969306e-01 -2.255357100e-01 +4.132981813e-01
32500000000.000000 -1.556184743e-01 +4.408554180e-01 -8.017360037e-01 -3.303964200e-01 -7.967946405e-01 -3.416272490e-01 -2.096509002e-01 +4.215288231e-01
33000000000.000000 -1.397992715e-01 +4.467559015e-01 -8.135578492e-01 -3.006115883e-01 -8.094896014e-01 -3.118383531e-01 -1.933423272e-01 +4.283080218e-01
33500000000.000000 -1.217332154e-01 +4.501789995e-01 -8.251286676e-01 -2.702559666e-01 -8.216718156e-01 -2.812676833e-01 -1.767312637e-01 +4.336286076e-01
34000000000.000000 -1.072452429e-01 +4.521890653e-01 -8.341217224e-01 -2.382704670e-01 -8.317523516e-01 -2.496279519e-01 -1.570081718e-01 +4.396991438e-01
34500000000.000000 -9.072101993e-02 +4.537150874e-01 -8.438495438e-01 -2.070977385e-01 -8.410981425e-01 -2.193735219e-01 -1.400714745e-01 +4.431042523e-01
35000000000.000000 -7.500107965e-02 +4.546151615e-01 -8.512877782e-01 -1.759279971e-01 -8.498021679e-01 -1.881582147e-01 -1.218350273e-01 +4.462477264e-01
35500000000.000000 -5.775472532e-02 +4.540102740e-01 -8.594559562e-01 -1.445460597e-01 -8.572064788e-01 -1.558733598e-01 -1.046338274e-01 +4.473973317e-01
36000000000.000000 -4.198759275e-02 +4.501717237e-01 -8.654442210e-01 -1.124762072e-01 -8.649124222e-01 -1.229160939e-01 -8.609037366e-02 +4.477137809e-01
36500000000.000000 -2.436408192e-02 +4.498125007e-01 -8.714205317e-01 -7.933805609e-02 -8.702707424e-01 -9.091321193e-02 -6.897518906e-02 +4.462105463e-01
37000000000.000000 -7.352496943e-03 +4.445513916e-01 -8.753846450e-01 -4.472732414e-02 -8.753063346e-01 -5.807016529e-02 -5.124375652e-02 +4.452055847e-01
37500000000.000000 +8.030069834e-03 +4.414047666e-01 -8.783930098e-01 -1.100084997e-02 -8.784093371e-01 -2.545971008e-02 -3.219233165e-02 +4.420787832e-01
38000000000.000000 +2.542294451e-02 +4.371426675e-01 -8.805299333e-01 +2.312935716e-02 -8.811771527e-01 +9.065089903e-03 -1.404496165e-02 +4.385472498e-01
38500000000.000000 +4.099425442e-02 +4.307436079e-01 -8.806917126e-01 +5.768681060e-02 -8.821968801e-01 +4.434470050e-02 +3.255783904e-03 +4.340715601e-01
39000000000.000000 +5.693993301e-02 +4.234907967e-01 -8.795653140e-01 +9.602844346e-02 -8.824346251e-01 +7.556658965e-02 +1.966979916e-02 +4.291615809e-01
39500000000.000000 +7.089222558e-02 +4.150597097e-01 -8.773326229e-01 +1.287590704e-01 -8.793961104e-01 +1.142792237e-01 +3.675104980e-02 +4.206411175e-01
40000000000.000000 +8.444092969e-02 +4.064632040e-01 -8.736742379e-01 +1.630629536e-01 -8.766138738e-01 +1.510904277e-01 +5.400608406e-02 +4.129618144e-01
40500000000.000000 +9.810828876e-02 +3.972394544e-01 -8.693306450e-01 +1.991627452e-01 -8.724670797e-01 +1.854688663e-01 +7.130505691e-02 +4.046127600e-01
41000000000.000000 +1.122114921e-01 +3.872542249e-01 -8.632745148e-01 +2.350384846e-01 -8.670167826e-01 +2.215763656e-01 +8.734358545e-02 +3.948123606e-01
41500000000.000000 +1.242170799e-01 +3.778212589e-01 -8.549588003e-01 +2.710630363e-01 -8.584087322e-01 +2.570879777e-01 +1.038784550e-01 +3.849189974e-01
42000000000.000000 +1.361333087e-01 +3.663027997e-01 -8.453833517e-01 +3.054642993e-01 -8.501812591e-01 +2.932885458e-01 +1.169260092e-01 +3.741010715e-01
42500000000.000000 +1.469217085e-01 +3.544011681e-01 -8.358644994e-01 +3.420508848e-01 -8.395687027e-01 +3.301216955e-01 +1.320149711e-01 +3.613678847e-01
43000000000.000000 +1.591340695e-01 +3.424621498e-01 -8.210099271e-01 +3.788787003e-01 -8.293387194e-01 +3.639522788e-01 +1.453308602e-01 +3.493087072e-01
43500000000.000000 +1.697344895e-01 +3.301808602e-01 -8.075514918e-01 +4.141173197e-01 -8.150219521e-01 +4.002759289e-01 +1.581215916e-01 +3.376082632e-01
44000000000.000000 +1.788083201e-01 +3.162837480e-01 -7.919986323e-01 +4.475281160e-01 -7.979627243e-01 +4.360163820e-01 +1.693814423e-01 +3.250863157e-01
44500000000.000000 +1.884989199e-01 +3.039970086e-01 -7.721715611e-01 +4.838242056e-01 -7.820981651e-01 +4.684159605e-01 +1.797401947e-01 +3.128562185e-01
45000000000.000000 +1.974428207e-01 +2.916491702e-01 -7.557971500e-01 +5.136045688e-01 -7.620969074e-01 +5.033440809e-01 +1.893840640e-01 +2.999503001e-01
45500000000.000000 +2.059283797e-01 +2.776216877e-01 -7.332949032e-01 +5.486742580e-01 -7.415109445e-01 +5.358418945e-01 +1.988400405e-01 +2.854425702e-01
46000000000.000000 +2.145698019e-01 +2.629780551e-01 -7.134825504e-01 +5.790711088e-01 -7.193254692e-01 +5.688834261e-01 +2.061303696e-01 +2.725876888e-01
46500000000.000000 +2.219060593e-01 +2.477331917e-01 -6.897843055e-01 +6.099741491e-01 -6.979858343e-01 +6.009334493e-01 +2.115517448e-01 +2.586725129e-01
47000000000.000000 +2.294808489e-01 +2.345970370e-01 -6.624341477e-01 +6.418157565e-01 -6.736185392e-01 +6.300348251e-01 +2.185523311e-01 +2.446284577e-01
47500000000.000000 +2.363795731e-01 +2.201076871e-01 -6.349976515e-01 +6.707316570e-01 -6.450853952e-01 +6.599260350e-01 +2.240072415e-01 +2.315271612e-01
48000000000.000000 +2.416299060e-01 +2.039414792e-01 -6.081112157e-01 +6.969805160e-01 -6.181912897e-01 +6.885400700e-01 +2.285612197e-01 +2.191575062e-01
48500000000.000000 +2.467700587e-01 +1.899609311e-01 -5.757179329e-01 +7.263394455e-01 -5.911400224e-01 +7.151738684e-01 +2.322113554e-01 +2.068923144e-01
49000000000.000000 +2.498501725e-01 +1.744500433e-01 -5.481932384e-01 +7.509584571e-01 -5.594233595e-01 +7.425179108e-01 +2.359479954e-01 +1.946576675e-01
49500000000.000000 +2.515518454e-01 +1.594686264e-01 -5.177606483e-01 +7.743067444e-01 -5.282184795e-01 +7.663469042e-01 +2.365067209e-01 +1.808996970e-01
50000000000.000000 +2.553056156e-01 +1.429749820e-01 -4.813354837e-01 +7.987231723e-01 -4.958317851e-01 +7.897652341e-01 +2.386549067e-01 +1.682006126e-01
50500000000.000000 +2.562828204e-01 +1.271459984e-01 -4.462287488e-01 +8.197409440e-01 -4.637160449e-01 +8.106567007e-01 +2.396117240e-01 +1.562216139e-01
51000000000.000000 +2.562096553e-01 +1.118976742e-01 -4.109108162e-01 +8.398030277e-01 -4.294925659e-01 +8.318714078e-01 +2.409220023e-01 +1.438239719e-01
51500000000.000000 +2.560080011e-01 +9.725255165e-02 -3.757132692e-01 +8.586000632e-01 -3.926748812e-01 +8.511624047e-01 +2.407699409e-01 +1.335377375e-01
52000000000.000000 +2.536627717e-01 +8.245571983e-02 -3.389650865e-01 +8.757345132e-01 -3.554159370e-01 +8.700196818e-01 +2.396362799e-01 +1.215598744e-01
52500000000.000000 +2.495818662e-01 +6.824214242e-02 -3.010558068e-01 +8.916330830e-01 -3.169054611e-01 +8.864276204e-01 +2.369537583e-01 +1.103033500e-01
53000000000.000000 +2.443137738e-01 +5.510301723e-02 -2.637360605e-01 +9.044548632e-01 -2.792662738e-01 +9.008488147e-01 +2.330275308e-01 +9.686703314e-02
53500000000.000000 +2.365280865e-01 +4.216726872e-02 -2.252496141e-01 +9.175871595e-01 -2.416602922e-01 +9.142905556e-01 +2.284284374e-01 +8.647042780e-02
54000000000.000000 +2.300253821e-01 +3.037432491e-02 -1.816203569e-01 +9.294389696e-01 -2.026482287e-01 +9.254127912e-01 +2.239223665e-01 +7.426256597e-02
54500000000.000000 +2.223487720e-01 +1.985018501e-02 -1.479970664e-01 +9.382619523e-01 -1.608186388e-01 +9.356260930e-01 +2.178708088e-01 +6.291390562e-02
55000000000.000000 +2.128433425e-01 +7.664138642e-03 -9.697594768e-02 +9.474008765e-01 -1.185212187e-01 +9.457874444e-01 +2.104900938e-01 +5.274612681e-02
55500000000.000000 +2.027472489e-01 +1.602526344e-03 -6.276388471e-02 +9.519741704e-01 -7.855406882e-02 +9.506689708e-01 +2.021196173e-01 +4.165485843e-02
56000000000.000000 +1.914341136e-01 -6.298735517e-03 -1.593231979e-02 +9.563434795e-01 -3.366393329e-02 +9.558359711e-01 +1.919508756e-01 +3.088437521e-02
56500000000.000000 +1.796274016e-01 -1.221949639e-02 +2.423132267e-02 +9.572265919e-01 +4.394186340e-03 +9.589004573e-01 +1.805456025e-01 +2.115455830e-02
57000000000.000000 +1.653770770e-01 -1.566696054e-02 +7.730867940e-02 +9.565948427e-01 +5.039387784e-02 +9.601759745e-01 +1.673361806e-01 +1.044833888e-02
57500000000.000000 +1.509458930e-01 -2.078362168e-02 +1.076986996e-01 +9.563547780e-01 +9.111757035e-02 +9.573330690e-01 +1.556669022e-01 +3.797409205e-03
58000000000.000000 +1.392847192e-01 -2.025607108e-02 +1.531346313e-01 +9.506198652e-01 +1.341486583e-01 +9.558534447e-01 +1.416831386e-01 -5.368017096e-03
58500000000.000000 +1.244157281e-01 -2.271620956e-02 +1.887956506e-01 +9.483302035e-01 +1.789580937e-01 +9.503422122e-01 +1.270470713e-01 -1.035841529e-02
59000000000.000000 +1.080060758e-01 -1.892575104e-02 +2.357109514e-01 +9.389786712e-01 +2.234586477e-01 +9.427219850e-01 +1.126810172e-01 -1.240145718e-02
59500000000.000000 +9.254631731e-02 -1.240135979e-02 +2.888157479e-01 +9.257722285e-01 +2.664516622e-01 +9.318245066e-01 +9.195770513e-02 -1.941593006e-02
60000000000.000000 +8.029032581e-02 -1.372699766e-02 +3.306261227e-01 +9.116012416e-01 +3.047507517e-01 +9.197645234e-01 +7.788822091e-02 -2.071095082e-02
60500000000.000000 +6.380095893e-02 -8.758159124e-03 +3.656756661e-01 +8.983748977e-01 +3.464327307e-01 +9.062087980e-01 +5.883752229e-02 -2.086281949e-02
61000000000.000000 +5.269486949e-02 -3.027461026e-03 +4.145223566e-01 +8.784163059e-01 +3.900314938e-01 +8.887795025e-01 +4.240683260e-02 -2.146637286e-02
61500000000.000000 +3.898371842e-02 -2.072831174e-04 +4.492988803e-01 +8.600180770e-01 +4.286694918e-01 +8.717745800e-01 +2.655648753e-02 -1.594371821e-02
62000000000.000000 +2.890065872e-02 +1.266604456e-02 +4.870105706e-01 +8.401198556e-01 +4.695807540e-01 +8.516542788e-01 +9.014123320e-03 -1.416738674e-02
62500000000.000000 +1.825271978e-02 +1.916022437e-02 +5.291349202e-01 +8.140330837e-01 +5.058273536e-01 +8.267060536e-01 -7.756685817e-03 -6.279238062e-03
63000000000.000000 +6.689199389e-03 +3.148532316e-02 +5.603307710e-01 +7.917928417e-01 +5.451718935e-01 +8.031233759e-01 -1.810852436e-02 +7.725116086e-04
63500000000.000000 -2.004676292e-03 +3.961451880e-02 +5.925844237e-01 +7.688213179e-01 +5.814152924e-01 +7.779037079e-01 -3.553423484e-02 +1.037846519e-02
64000000000.000000 -1.205617984e-02 +5.157553870e-02 +6.275452388e-01 +7.374446140e-01 +6.149158311e-01 +7.492211123e-01 -4.397433846e-02 +1.962638874e-02
64500000000.000000 -2.179760819e-02 +6.209631649e-02 +6.673999428e-01 +6.998882253e-01 +6.468667027e-01 +7.212560570e-01 -5.422049951e-02 +3.315660327e-02
65000000000.000000 -2.768768039e-02 +7.469583538e-02 +6.860136848e-01 +6.774088200e-01 +6.779820502e-01 +6.901858829e-01 -6.500772700e-02 +4.512676432e-02
65500000000.000000 -3.506951231e-02 +8.875347409e-02 +7.214246256e-01 +6.417950219e-01 +7.053397015e-01 +6.594606708e-01 -7.436567960e-02 +5.943980906e-02
66000000000.000000 -4.109109050e-02 +1.025124120e-01 +7.498212648e-01 +6.060046103e-01 +7.328661273e-01 +6.233325057e-01 -7.981688811e-02 +7.495566604e-02
66500000000.000000 -4.416057641e-02 +1.126601542e-01 +7.736845197e-01 +5.735358731e-01 +7.595425966e-01 +5.907522317e-01 -8.720433767e-02 +8.815010262e-02
67000000000.000000 -4.885034333e-02 +1.282953970e-01 +8.014658494e-01 +5.287349324e-01 +7.837306052e-01 +5.545337080e-01 -8.967295935e-02 +1.025955911e-01
67500000000.000000 -4.736352704e-02 +1.405333073e-01 +8.137483007e-01 +5.067066323e-01 +8.064544027e-01 +5.182278724e-01 -9.485188958e-02 +1.185160699e-01
68000000000.000000 -4.854888994e-02 +1.570192907e-01 +8.377819459e-01 +4.577619375e-01 +8.258924213e-01 +4.812458106e-01 -9.386401153e-02 +1.313597039e-01
68500000000.000000 -4.693392173e-02 +1.704078297e-01 +8.544347768e-01 +4.259551500e-01 +8.459018328e-01 +4.431624416e-01 -9.437859545e-02 +1.471681960e-01
69000000000.000000 -4.356075225e-02 +1.851865074e-01 +8.733133136e-01 +3.784475176e-01 +8.614200018e-01 +4.043540153e-01 -9.185819044e-02 +1.620833928e-01
69500000000.000000 -3.931366377e-02 +1.973604148e-01 +8.864111793e-01 +3.377780225e-01 +8.766729988e-01 +3.643823911e-01 -8.886485645e-02 +1.771470681e-01
70000000000.000000 -3.689303136e-02 +2.092756866e-01 +8.961433220e-01 +3.033764700e-01 +8.868555395e-01 +3.268208345e-01 -8.514573568e-02 +1.912549779e-01
70500000000.000000 -2.991692002e-02 +2.232852753e-01 +9.060456401e-01 +2.625443145e-01 +8.983485180e-01 +2.874280984e-01 -8.033512366e-02 +2.037462285e-01
71000000000.000000 -2.198802692e-02 +2.343808612e-01 +9.152202152e-01 +2.188918490e-01 +9.086996409e-01 +2.479745073e-01 -7.379339304e-02 +2.149814031e-01
71500000000.000000 -9.466447245e-03 +2.398876590e-01 +9.233385227e-01 +1.700088408e-01 +9.170196946e-01 +2.069260601e-01 -6.637385483e-02 +2.268460944e-01
72000000000.000000 -3.916589028e-03 +2.534713734e-01 +9.251207733e-01 +1.394325293e-01 +9.201730970e-01 +1.649579192e-01 -6.014373487e-02 +2.384818833e-01
72500000000.000000 +4.478036616e-03 +2.652989732e-01 +9.275892717e-01 +9.332709672e-02 +9.233827620e-01 +1.252430479e-01 -4.931481735e-02 +2.505484744e-01
73000000000.000000 +1.327347067e-02 +2.713893061e-01 +9.265556503e-01 +5.693515215e-02 +9.282084878e-01 +8.327550994e-02 -3.870647294e-02 +2.618429634e-01
73500000000.000000 +2.147875042e-02 +2.783345974e-01 +9.256905153e-01 +1.537678187e-02 +9.269640213e-01 +4.470705870e-02 -2.469356294e-02 +2.699260194e-01
74000000000.000000 +3.446374555e-02 +2.857681784e-01 +9.239861709e-01 -3.062343499e-02 +9.244493127e-01 +4.452771302e-03 -1.011476951e-02 +2.785035927e-01
74500000000.000000 +4.473067592e-02 +2.916023569e-01 +9.194589190e-01 -6.916312172e-02 +9.218798501e-01 -3.491567504e-02 +3.980631701e-03 +2.853007664e-01
75000000000.000000 +5.686593941e-02 +2.958916339e-01 +9.146626544e-01 -1.050515445e-01 +9.160055202e-01 -8.017369342e-02 +1.887664858e-02 +2.908583345e-01
75500000000.000000 +7.363804706e-02 +3.012715812e-01 +9.053840515e-01 -1.476961790e-01 +9.115116290e-01 -1.187984734e-01 +3.007054516e-02 +2.968137945e-01
76000000000.000000 +7.922235086e-02 +3.032288171e-01 +8.987211586e-01 -1.767014012e-01 +9.020274452e-01 -1.570163885e-01 +4.972808175e-02 +3.008785903e-01
76500000000.000000 +9.505392656e-02 +3.060866913e-01 +8.855187789e-01 -2.284391162e-01 +8.904909081e-01 -1.993714646e-01 +6.670085491e-02 +3.051358997e-01
77000000000.000000 +1.090596496e-01 +3.048694830e-01 +8.722451858e-01 -2.570716153e-01 +8.829329849e-01 -2.360123917e-01 +8.256032844e-02 +3.046400750e-01
77500000000.000000 +1.209735165e-01 +3.063807667e-01 +8.544561046e-01 -3.055025303e-01 +8.682379076e-01 -2.716236310e-01 +9.812410254e-02 +3.081980285e-01
78000000000.000000 +1.363597430e-01 +3.050133113e-01 +8.379431626e-01 -3.435858957e-01 +8.540754838e-01 -3.074529723e-01 +1.157458313e-01 +3.089406492e-01
78500000000.000000 +1.478698994e-01 +3.067478630e-01 +8.224698610e-01 -3.698063675e-01 +8.343616529e-01 -3.437209968e-01 +1.323509754e-01 +3.112828710e-01
79000000000.000000 +1.639918862e-01 +3.058971411e-01 +8.029984785e-01 -4.068392031e-01 +8.156171122e-01 -3.778121867e-01 +1.499353349e-01 +3.094046721e-01
79500000000.000000 +1.755219408e-01 +3.029832988e-01 +7.896514947e-01 -4.283467979e-01 +7.992613987e-01 -4.152160345e-01 +1.658311729e-01 +3.090116607e-01
80000000000.000000 +1.886145250e-01 +3.063858825e-01 +7.702205264e-01 -4.612449618e-01 +7.789682532e-01 -4.436581091e-01 +1.813386951e-01 +3.067609040e-01
80500000000.000000 +2.122687722e-01 +3.041244612e-01 +7.475056718e-01 -4.863996766e-01 +7.561792694e-01 -4.746290367e-01 +2.000071738e-01 +3.092161390e-01
81000000000.000000 +2.115548768e-01 +2.953151498e-01 +7.304415664e-01 -5.170605884e-01 +7.324453107e-01 -5.043374446e-01 +2.097503797e-01 +3.007564838e-01
81500000000.000000 +2.439335951e-01 +2.972794999e-01 +6.915014736e-01 -5.564031728e-01 +7.073932837e-01 -5.357023377e-01 +2.354962349e-01 +2.961305818e-01
82000000000.000000 +2.708491738e-01 +2.830458908e-01 +6.509022465e-01 -5.981854262e-01 +6.790455144e-01 -5.607885097e-01 +2.492941009e-01 +2.950819068e-01
82500000000.000000 +2.822605776e-01 +2.733733167e-01 +6.318270568e-01 -6.108444782e-01 +6.522916857e-01 -5.892903111e-01 +2.681697416e-01 +2.870304271e-01
83000000000.000000 +2.989119597e-01 +2.660222941e-01 +6.109659336e-01 -6.299996354e-01 +6.269855143e-01 -6.159685524e-01 +2.771287808e-01 +2.880394737e-01
83500000000.000000 +3.175152573e-01 +2.517333805e-01 +5.732756426e-01 -6.612159163e-01 +5.999908057e-01 -6.377664521e-01 +2.943983864e-01 +2.809659183e-01
84000000000.000000 +3.339240690e-01 +2.449189052e-01 +5.611082644e-01 -6.682860842e-01 +5.699748920e-01 -6.601331454e-01 +3.068282677e-01 +2.763566848e-01
84500000000.000000 +3.505806927e-01 +2.250978111e-01 +5.167018507e-01 -7.001899017e-01 +5.413834349e-01 -6.808711085e-01 +3.216787293e-01 +2.694670127e-01
85000000000.000000 +3.616304722e-01 +2.145224183e-01 +4.935263497e-01 -7.138568039e-01 +5.095974355e-01 -7.023856022e-01 +3.370471495e-01 +2.617184722e-01
85500000000.000000 +3.838573235e-01 +1.945146923e-01 +4.521118289e-01 -7.383820858e-01 +4.818034052e-01 -7.197446949e-01 +3.477052122e-01 +2.586453764e-01
86000000000.000000 +3.951869455e-01 +1.838984129e-01 +4.256974075e-01 -7.504579494e-01 +4.526194104e-01 -7.340085002e-01 +3.617071577e-01 +2.475252122e-01
86500000000.000000 +4.067396625e-01 +1.629310927e-01 +3.864314694e-01 -7.683540103e-01 +4.213560046e-01 -7.482580363e-01 +3.748382127e-01 +2.381321878e-01
87000000000.000000 +4.175101975e-01 +1.405824873e-01 +3.540606502e-01 -7.828567115e-01 +3.876694221e-01 -7.637170853e-01 +3.842921519e-01 +2.288834460e-01
87500000000.000000 +4.294904904e-01 +1.266138899e-01 +3.222698192e-01 -7.939172925e-01 +3.544281512e-01 -7.765245535e-01 +3.964935279e-01 +2.193581406e-01
88000000000.000000 +4.459033927e-01 +1.173695550e-01 +2.977032853e-01 -7.982149887e-01 +3.218107768e-01 -7.923006810e-01 +4.053189074e-01 +2.068308938e-01
88500000000.000000 +4.462349624e-01 +9.305823066e-02 +2.642466632e-01 -8.113887358e-01 +2.967649222e-01 -8.005862057e-01 +4.202395381e-01 +1.949249028e-01
89000000000.000000 +4.638294332e-01 +6.968262291e-02 +2.188410843e-01 -8.254387136e-01 +2.625544656e-01 -8.077300575e-01 +4.267532285e-01 +1.841983746e-01
89500000000.000000 +4.651008777e-01 +6.122024607e-02 +2.060033369e-01 -8.267265396e-01 +2.317711141e-01 -8.159881359e-01 +4.366198351e-01 +1.690645764e-01
90000000000.000000 +4.618383608e-01 +3.959791278e-02 +1.675560728e-01 -8.343345433e-01 +2.031876355e-01 -8.227526224e-01 +4.446173710e-01 +1.528250824e-01
90500000000.000000 +4.739435852e-01 +4.570931686e-02 +1.576643437e-01 -8.321597202e-01 +1.727571136e-01 -8.262692457e-01 +4.541428704e-01 +1.359599450e-01
91000000000.000000 +4.668506588e-01 +6.207298741e-03 +1.085331156e-01 -8.390325759e-01 +1.369338316e-01 -8.361517640e-01 +4.569586775e-01 +1.239140872e-01
91500000000.000000 +4.709386629e-01 -1.203791886e-02 +7.373968292e-02 -8.429727025e-01 +1.079793044e-01 -8.416590401e-01 +4.628243535e-01 +1.060288248e-01
92000000000.000000 +4.660408652e-01 -2.606219952e-02 +4.234298230e-02 -8.438186721e-01 +7.411290764e-02 -8.417253808e-01 +4.706438201e-01 +8.533883931e-02
92500000000.000000 +4.636751274e-01 -4.430522316e-02 +1.430609916e-02 -8.439548057e-01 +3.998438264e-02 -8.423828871e-01 +4.717607222e-01 +7.171025146e-02
93000000000.000000 +4.654096123e-01 -7.165664670e-02 -1.965268995e-02 -8.454060284e-01 +1.058094901e-02 -8.443229891e-01 +4.712127880e-01 +6.161198901e-02
93500000000.000000 +4.561896925e-01 -8.254250654e-02 -5.063276737e-02 -8.435447858e-01 -2.248354163e-02 -8.508173245e-01 +4.783179340e-01 +4.699802724e-02
94000000000.000000 +4.636568946e-01 -9.977613676e-02 -7.963720412e-02 -8.418645948e-01 -4.782032227e-02 -8.454256921e-01 +4.739723037e-01 +2.886250754e-02
94500000000.000000 +4.555676077e-01 -1.186408725e-01 -1.205376025e-01 -8.356288204e-01 -8.199868861e-02 -8.416766990e-01 +4.770834771e-01 +1.488042457e-02
95000000000.000000 +4.425539891e-01 -1.311550384e-01 -1.385453828e-01 -8.355635493e-01 -1.120721487e-01 -8.385623189e-01 +4.778455793e-01 -2.259479098e-03
95500000000.000000 +4.411851956e-01 -1.550275892e-01 -1.786889721e-01 -8.276558281e-01 -1.442794664e-01 -8.339943404e-01 +4.753435260e-01 -1.441939322e-02
96000000000.000000 +4.283441028e-01 -1.702035357e-01 -2.157693345e-01 -8.219412309e-01 -1.780084636e-01 -8.238986958e-01 +4.642495697e-01 -3.319905222e-02
96500000000.000000 +4.181460008e-01 -1.820616778e-01 -2.415765235e-01 -8.149434530e-01 -2.121961037e-01 -8.231694229e-01 +4.652340067e-01 -5.142573325e-02
97000000000.000000 +4.132442628e-01 -2.008029155e-01 -2.800290954e-01 -8.017794808e-01 -2.427252084e-01 -8.141502297e-01 +4.580437762e-01 -6.563591115e-02
97500000000.000000 +3.980599905e-01 -2.041759072e-01 -2.927141459e-01 -8.003082356e-01 -2.731094251e-01 -8.058871008e-01 +4.535886689e-01 -7.949884751e-02
98000000000.000000 +3.889035990e-01 -2.117903365e-01 -3.298248559e-01 -7.881140118e-01 -3.125059242e-01 -7.959944247e-01 +4.427803587e-01 -1.027026904e-01
98500000000.000000 +3.825416796e-01 -2.263975922e-01 -3.577573257e-01 -7.758581119e-01 -3.419986276e-01 -7.848323739e-01 +4.343533179e-01 -1.174057781e-01
99000000000.000000 +3.645357611e-01 -2.380897686e-01 -3.979508323e-01 -7.592934701e-01 -3.710977014e-01 -7.776140180e-01 +4.207018095e-01 -1.358032617e-01
99500000000.000000 +3.482774963e-01 -2.434857897e-01 -4.348671033e-01 -7.415492894e-01 -4.005090726e-01 -7.632402382e-01 +4.067760492e-01 -1.526667292e-01
100000000000.000000 +3.407999642e-01 -2.489919605e-01 -4.623651050e-01 -7.258330319e-01 -4.334167205e-01 -7.440203011e-01 +3.917297178e-01 -1.735871307e-01
100500000000.000000 +3.325488357e-01 -2.553680843e-01 -4.906807942e-01 -7.102007179e-01 -4.682825070e-01 -7.279697115e-01 +3.753991588e-01 -1.876990355e-01
101000000000.000000 +3.177351249e-01 -2.596113509e-01 -5.277258974e-01 -6.911156392e-01 -4.989662809e-01 -7.139619105e-01 +3.591447708e-01 -2.062999252e-01
101500000000.000000 +3.057301319e-01 -2.627950803e-01 -5.542033980e-01 -6.728076725e-01 -5.255179743e-01 -6.914893600e-01 +3.396203568e-01 -2.177036393e-01
102000000000.000000 +2.935221666e-01 -2.690292625e-01 -5.928928906e-01 -6.441795923e-01 -5.583913971e-01 -6.708950185e-01 +3.184601434e-01 -2.348148214e-01
102500000000.000000 +2.742353111e-01 -2.701102677e-01 -6.239627806e-01 -6.201907539e-01 -5.906719684e-01 -6.498944468e-01 +2.980706925e-01 -2.455433188e-01
103000000000.000000 +2.610959683e-01 -2.736666974e-01 -6.486387252e-01 -5.926256856e-01 -6.165182719e-01 -6.237137370e-01 +2.770634886e-01 -2.541066490e-01
103500000000.000000 +2.429995334e-01 -2.830670886e-01 -6.723951287e-01 -5.710634008e-01 -6.507230425e-01 -5.974257854e-01 +2.628602316e-01 -2.606203762e-01
104000000000.000000 +2.387944813e-01 -2.762357014e-01 -6.944165239e-01 -5.485276373e-01 -6.739940625e-01 -5.732314830e-01 +2.418772385e-01 -2.703476135e-01
104500000000.000000 +2.233974164e-01 -2.749469394e-01 -7.143940752e-01 -5.255465442e-01 -6.974720664e-01 -5.543485051e-01 +2.225798351e-01 -2.750379115e-01
105000000000.000000 +2.159299777e-01 -2.732728279e-01 -7.429582272e-01 -4.850566723e-01 -7.197009648e-01 -5.232309824e-01 +2.021217961e-01 -2.846222607e-01
105500000000.000000 +2.012396199e-01 -2.768241356e-01 -7.591866472e-01 -4.594271963e-01 -7.419922654e-01 -4.815733708e-01 +1.809015225e-01 -2.839462579e-01
106000000000.000000 +1.872720336e-01 -2.784187722e-01 -7.890686780e-01 -4.192355116e-01 -7.729652207e-01 -4.496198129e-01 +1.657894312e-01 -2.884912596e-01
106500000000.000000 +1.743752790e-01 -2.846011290e-01 -8.079684945e-01 -3.942412965e-01 -7.886554382e-01 -4.355969067e-01 +1.461934181e-01 -2.923951171e-01
107000000000.000000 +1.621807035e-01 -2.723702772e-01 -8.244009951e-01 -3.534093530e-01 -8.071880655e-01 -3.991337201e-01 +1.288338568e-01 -2.963582980e-01
107500000000.000000 +1.382573569e-01 -2.741676211e-01 -8.507010811e-01 -2.998569566e-01 -8.253579889e-01 -3.678442161e-01 +1.126738702e-01 -2.916859340e-01
108000000000.000000 +1.252593685e-01 -2.771656414e-01 -8.547236578e-01 -2.947275588e-01 -8.454010222e-01 -3.206973234e-01 +9.861698371e-02 -2.941626562e-01
108500000000.000000 +1.145912710e-01 -2.792873430e-01 -8.653843259e-01 -2.499262358e-01 -8.595101723e-01 -2.853560459e-01 +8.494987681e-02 -2.932789635e-01
109000000000.000000 +9.948102656e-02 -2.709316113e-01 -8.809233625e-01 -2.041607161e-01 -8.703283428e-01 -2.452404357e-01 +6.649823627e-02 -2.907092524e-01
109500000000.000000 +8.017531165e-02 -2.741433633e-01 -8.983244115e-01 -1.578392920e-01 -8.895866151e-01 -2.112391885e-01 +5.518424775e-02 -2.893853245e-01
110000000000.000000 +6.445235971e-02 -2.763604719e-01 -9.083291588e-01 -1.400843305e-01 -8.928676713e-01 -1.734911631e-01 +4.729893639e-02 -2.865006184e-01
110500000000.000000 +5.052132644e-02 -2.561406578e-01 -9.081886555e-01 -8.347449267e-02 -9.098221403e-01 -1.360561756e-01 +3.810334606e-02 -2.846054437e-01
111000000000.000000 +3.564614320e-02 -2.719566324e-01 -9.177018612e-01 -4.074624284e-02 -9.048983150e-01 -8.883616298e-02 +2.076097566e-02 -2.793811539e-01
111500000000.000000 +9.244245589e-03 -2.522860096e-01 -9.128337324e-01 +3.298730243e-03 -9.214179557e-01 -5.272049126e-02 +1.871898598e-02 -2.808554334e-01
112000000000.000000 +1.554525905e-02 -2.423519161e-01 -9.191799025e-01 +4.087250231e-02 -9.178852613e-01 -1.422013343e-02 +4.704951240e-03 -2.559419161e-01
112500000000.000000 -1.265143125e-03 -2.389118159e-01 -9.039684117e-01 +5.732244408e-02 -9.174322050e-01 +2.261672539e-02 -7.618967359e-03 -2.686473884e-01
113000000000.000000 -2.017287822e-02 -2.279854200e-01 -9.086842991e-01 +1.268579541e-01 -9.103784528e-01 +6.406732996e-02 -4.776070976e-03 -2.438044433e-01
113500000000.000000 -3.099449563e-02 -2.170970114e-01 -8.959137789e-01 +1.386652766e-01 -9.162392863e-01 +1.209273720e-01 -1.678398904e-02 -2.470848378e-01
114000000000.000000 -3.158918068e-02 -2.304650105e-01 -9.113658650e-01 +1.852019929e-01 -9.263534897e-01 +1.387280348e-01 -1.903034857e-02 -2.345110285e-01
114500000000.000000 -4.719063273e-02 -2.133900917e-01 -8.923070188e-01 +2.404017573e-01 -9.070948194e-01 +1.893381933e-01 -2.455372952e-02 -2.277313459e-01
115000000000.000000 -5.472144273e-02 -1.984610148e-01 -8.883737268e-01 +2.779538839e-01 -9.070416331e-01 +2.323323836e-01 -2.959690536e-02 -2.197447625e-01
115500000000.000000 -7.640867514e-02 -1.896682711e-01 -8.860937331e-01 +3.065801542e-01 -8.891609056e-01 +2.648008417e-01 -3.304501501e-02 -2.138205294e-01
116000000000.000000 -8.484888393e-02 -1.841357508e-01 -8.688672293e-01 +3.536933885e-01 -8.740318952e-01 +3.185909783e-01 -3.624321499e-02 -2.028208738e-01
116500000000.000000 -1.000195753e-01 -1.661827800e-01 -8.417745881e-01 +3.980202233e-01 -8.613262062e-01 +3.519511309e-01 -4.680504744e-02 -1.942633881e-01
117000000000.000000 -8.071491706e-02 -1.515655495e-01 -8.312331062e-01 +4.272586798e-01 -8.502546508e-01 +3.942595409e-01 -4.705377759e-02 -1.857081060e-01
117500000000.000000 -9.451825437e-02 -1.480860300e-01 -8.084681144e-01 +4.679173694e-01 -8.314611623e-01 +4.320867976e-01 -4.225313927e-02 -1.735680415e-01
118000000000.000000 -9.640710695e-02 -1.344179602e-01 -7.920556546e-01 +4.968888696e-01 -8.232980538e-01 +4.683713725e-01 -4.502036790e-02 -1.631632646e-01
118500000000.000000 -8.479813869e-02 -1.162874565e-01 -7.654794741e-01 +5.367739267e-01 -7.962069567e-01 +4.904718096e-01 -4.862966305e-02 -1.460135515e-01
119000000000.000000 -8.863307526e-02 -9.897464344e-02 -7.502842500e-01 +5.680153544e-01 -7.713318281e-01 +5.385266099e-01 -4.166195573e-02 -1.389039378e-01
119500000000.000000 -8.672734597e-02 -9.304911495e-02 -7.367703409e-01 +5.881115017e-01 -7.529819992e-01 +5.663581229e-01 -3.709233839e-02 -1.239537084e-01
120000000000.000000 -8.385059110e-02 -7.779655250e-02 -6.942119435e-01 +6.402409471e-01 -7.245575890e-01 +6.011596984e-01 -3.274738835e-02 -1.134830087e-01
120500000000.000000 -7.491820371e-02 -6.002186323e-02 -6.629932854e-01 +6.672890098e-01 -6.954380897e-01 +6.315792516e-01 -2.920255982e-02 -9.900249021e-02
121000000000.000000 -8.144568636e-02 -5.530520708e-02 -6.457841909e-01 +6.872585096e-01 -6.688681934e-01 +6.644833416e-01 -2.224694907e-02 -9.194105747e-02
121500000000.000000 -6.674190571e-02 -4.567220994e-02 -5.822067686e-01 +7.383141368e-01 -6.415372262e-01 +6.950114826e-01 -1.669389170e-02 -8.187805141e-02
122000000000.000000 -5.689536700e-02 -2.279607187e-02 -5.671168668e-01 +7.561302391e-01 -6.123775641e-01 +7.165655413e-01 -1.064962086e-02 -7.130071376e-02
122500000000.000000 -4.114626157e-02 -1.416191025e-02 -5.408243177e-01 +7.899330691e-01 -5.617991533e-01 +7.490184689e-01 +2.740698172e-03 -6.199823092e-02
123000000000.000000 -4.417198741e-02 -1.014070391e-02 -4.979547628e-01 +8.096223609e-01 -5.323314224e-01 +7.793883871e-01 +1.075819759e-02 -4.919194415e-02
123500000000.000000 -6.689218620e-03 -9.609634413e-03 -4.598862038e-01 +8.249189525e-01 -5.064067351e-01 +8.032469423e-01 +1.892666228e-02 -4.198276861e-02
124000000000.000000 -1.349238457e-03 +1.713985498e-03 -4.337100983e-01 +8.351178836e-01 -4.628530717e-01 +8.208242154e-01 +3.422467644e-02 -3.659380642e-02
124500000000.000000 -1.924915833e-03 -5.796060581e-03 -3.970270070e-01 +8.548425403e-01 -4.285278293e-01 +8.500472214e-01 +3.583675242e-02 -3.168737945e-02
125000000000.000000 +2.557848902e-02 +1.495962433e-02 -3.443117209e-01 +8.743774128e-01 -4.022272498e-01 +8.549085658e-01 +5.005061804e-02 -2.049207148e-02
125500000000.000000 +3.649178598e-02 +5.740929532e-03 -2.995074421e-01 +8.837171754e-01 -3.447808157e-01 +8.677609700e-01 +6.095261190e-02 -1.468692293e-02
126000000000.000000 +4.450613600e-02 +6.494927121e-03 -2.579024124e-01 +9.113490530e-01 -3.096253895e-01 +8.837406039e-01 +6.925711508e-02 -8.644534500e-03
126500000000.000000 +7.414498165e-02 +1.194875255e-03 -2.372450199e-01 +9.076412571e-01 -2.780161537e-01 +9.090452207e-01 +8.952430330e-02 -6.114703427e-03
127000000000.000000 +7.747799856e-02 -1.939780322e-03 -1.588585506e-01 +9.256673115e-01 -2.420608596e-01 +9.101034633e-01 +9.505466678e-02 +1.074721892e-02
127500000000.000000 +9.421145195e-02 -2.472101904e-02 -1.373747455e-01 +9.260941632e-01 -1.848768512e-01 +9.179494888e-01 +1.054344148e-01 +7.243227155e-03
128000000000.000000 +1.049986825e-01 -1.890191855e-02 -9.700939118e-02 +9.266467830e-01 -1.416541013e-01 +9.324448157e-01 +1.187212142e-01 +1.101861681e-02
128500000000.000000 +1.240388648e-01 -3.863277159e-02 -5.152950185e-02 +9.217774652e-01 -1.039158534e-01 +9.159667257e-01 +1.350460614e-01 +1.404758538e-03
129000000000.000000 +1.199481348e-01 -6.867646219e-02 -2.630974344e-03 +9.190600123e-01 -5.064271280e-02 +9.174794255e-01 +1.463182517e-01 +1.777772251e-02
129500000000.000000 +1.370196622e-01 -5.987308930e-02 +3.415527385e-02 +9.258904686e-01 -6.528150978e-03 +9.409340130e-01 +1.513124094e-01 +1.264157734e-02
130000000000.000000 +1.300830798e-01 -5.211973850e-02 +5.711099559e-02 +9.317237956e-01 +2.422389078e-02 +9.366793137e-01 +1.555594643e-01 +1.695537028e-02
130500000000.000000 +1.747207238e-01 -7.203024393e-02 +1.291427200e-01 +9.190201707e-01 +7.317913428e-02 +9.218107848e-01 +1.788502439e-01 +3.783883442e-03
131000000000.000000 +1.968339423e-01 -5.397826816e-02 +1.833201863e-01 +8.959896462e-01 +1.097098434e-01 +9.182021503e-01 +2.020516117e-01 +4.852720489e-03
131500000000.000000 +1.590115905e-01 -1.111224128e-01 +2.068516377e-01 +8.857868968e-01 +1.543716550e-01 +9.071474964e-01 +2.023163484e-01 +1.618461623e-02
132000000000.000000 +1.797224857e-01 -1.372837729e-01 +2.522313407e-01 +8.691608872e-01 +1.872862670e-01 +9.038202441e-01 +2.068579188e-01 +5.749792777e-03
132500000000.000000 +1.788095936e-01 -1.490446486e-01 +2.819910202e-01 +8.715630019e-01 +2.286063215e-01 +8.804558255e-01 +2.110504775e-01 -1.465709174e-02
133000000000.000000 +2.054553839e-01 -1.354367595e-01 +2.980406751e-01 +8.500218890e-01 +2.625716716e-01 +8.584522926e-01 +2.345050147e-01 -2.761823954e-02
133500000000.000000 +1.820132548e-01 -1.481359818e-01 +3.672781796e-01 +8.294193462e-01 +3.113201260e-01 +8.545068039e-01 +2.501245330e-01 -4.026701741e-02
134000000000.000000 +1.807119750e-01 -1.989992484e-01 +3.963326620e-01 +8.210629665e-01 +3.478657958e-01 +8.467750071e-01 +2.461552356e-01 -4.121118546e-02
134500000000.000000 +1.915765637e-01 -1.965169086e-01 +4.441471325e-01 +7.987862546e-01 +3.734871548e-01 +8.328551278e-01 +2.368372725e-01 -7.404947688e-02
135000000000.000000 +2.123573389e-01 -1.972977407e-01 +4.421790113e-01 +7.831166789e-01 +3.998051850e-01 +7.934222543e-01 +2.525168678e-01 -8.356134073e-02
135500000000.000000 +1.935427118e-01 -2.119320264e-01 +4.780447368e-01 +7.570557189e-01 +4.364128243e-01 +7.817884966e-01 +2.630382905e-01 -1.028236898e-01
136000000000.000000 +1.888570390e-01 -2.265646735e-01 +5.196977583e-01 +7.237807419e-01 +4.793526206e-01 +7.538586804e-01 +2.731097918e-01 -1.084426148e-01
136500000000.000000 +2.008046783e-01 -2.520111820e-01 +5.524097527e-01 +6.961727794e-01 +5.091963782e-01 +7.355982726e-01 +2.642845595e-01 -1.178074452e-01
137000000000.000000 +1.761818026e-01 -2.563430466e-01 +5.600836932e-01 +6.769748863e-01 +5.360406000e-01 +7.114809078e-01 +2.593663303e-01 -1.285937308e-01
137500000000.000000 +1.873138811e-01 -2.509095888e-01 +6.083650368e-01 +6.351294213e-01 +5.641149838e-01 +6.795599580e-01 +2.530988040e-01 -1.588987972e-01
138000000000.000000 +1.859885507e-01 -2.645367042e-01 +6.221211233e-01 +6.232237657e-01 +5.891690912e-01 +6.619683960e-01 +2.654602982e-01 -1.753446199e-01
138500000000.000000 +1.330709851e-01 -2.673919255e-01 +6.709838159e-01 +5.790926496e-01 +6.280334912e-01 +6.229748013e-01 +2.517089913e-01 -1.739009679e-01
139000000000.000000 +1.890595338e-01 -3.198659674e-01 +6.878530795e-01 +5.490578328e-01 +6.429570902e-01 +6.029714916e-01 +2.386613105e-01 -1.895681408e-01
139500000000.000000 +1.747463792e-01 -2.944804727e-01 +6.930806716e-01 +5.479784541e-01 +6.674857753e-01 +5.666611208e-01 +2.226874281e-01 -2.301041881e-01
140000000000.000000 +1.775426381e-01 -3.036889947e-01 +7.128320665e-01 +4.960326082e-01 +6.884564015e-01 +5.333690038e-01 +2.344908523e-01 -2.426280273e-01
140500000000.000000 +1.273877167e-01 -3.491986269e-01 +7.508851711e-01 +4.670162985e-01 +7.201702341e-01 +5.143987508e-01 +2.429181188e-01 -2.527248597e-01
141000000000.000000 +6.069224650e-02 -2.793456093e-01 +7.645385958e-01 +4.128920857e-01 +7.397203525e-01 +4.674718440e-01 +2.212705396e-01 -2.379701021e-01
141500000000.000000 +8.991505906e-02 -3.321689341e-01 +7.618501643e-01 +4.071133208e-01 +7.488150955e-01 +4.320498259e-01 +2.009512663e-01 -2.600606015e-01
142000000000.000000 +8.522467276e-02 -3.572756395e-01 +7.825908465e-01 +3.693124265e-01 +7.656635265e-01 +4.031992308e-01 +2.020425356e-01 -2.723720274e-01
142500000000.000000 +9.062675635e-02 -3.483282855e-01 +8.076031475e-01 +3.136451199e-01 +7.882467786e-01 +3.697187096e-01 +1.842649607e-01 -2.984724669e-01
143000000000.000000 +5.304571440e-02 -3.350231487e-01 +7.963770764e-01 +3.047781124e-01 +7.890472126e-01 +3.286188940e-01 +1.753842010e-01 -3.081709163e-01
143500000000.000000 +6.894188814e-02 -3.829350432e-01 +8.219863108e-01 +2.511042890e-01 +8.066058139e-01 +3.014311773e-01 +1.580578694e-01 -3.131738252e-01
144000000000.000000 +6.536000861e-02 -3.663031347e-01 +8.384310380e-01 +2.155657796e-01 +8.219928305e-01 +2.711852057e-01 +1.448694195e-01 -3.306796742e-01
144500000000.000000 +4.769434583e-02 -3.859314161e-01 +8.458217612e-01 +1.699034165e-01 +8.253049591e-01 +2.273230530e-01 +1.245741864e-01 -3.483739855e-01
145000000000.000000 +2.997749766e-02 -3.893722257e-01 +8.461815474e-01 +1.505548656e-01 +8.381856336e-01 +1.950970078e-01 +1.160554227e-01 -3.404283067e-01
145500000000.000000 -6.386040470e-04 -3.827264549e-01 +8.436725472e-01 +1.075677213e-01 +8.386148618e-01 +1.658433994e-01 +9.296525877e-02 -3.396080824e-01
146000000000.000000 +2.473882032e-05 -3.899060039e-01 +8.510811063e-01 +7.847372751e-02 +8.548145768e-01 +1.218675978e-01 +6.848834562e-02 -3.440017850e-01
146500000000.000000 -1.969880720e-02 -3.866979318e-01 +8.479836829e-01 +6.764127313e-02 +8.557545307e-01 +1.022949987e-01 +7.930048863e-02 -3.591119412e-01
147000000000.000000 -1.842096153e-02 -4.031043427e-01 +8.545506868e-01 -2.652123090e-03 +8.598056454e-01 +5.434550043e-02 +3.626701387e-02 -3.651704795e-01
147500000000.000000 -3.228400092e-02 -3.645448560e-01 +8.652452605e-01 -5.526678761e-02 +8.739739541e-01 +2.423207092e-02 +3.568362796e-02 -3.735593357e-01
148000000000.000000 -5.661232619e-02 -3.866715654e-01 +8.531663860e-01 -3.183166394e-02 +8.541179768e-01 -7.971049826e-04 +1.697628092e-02 -3.731987952e-01
148500000000.000000 -7.341631628e-02 -3.851926678e-01 +8.454341685e-01 -9.508253848e-02 +8.586844811e-01 -4.242812379e-02 +5.485730881e-03 -3.912521981e-01
149000000000.000000 -9.527530347e-02 -3.942779646e-01 +8.377792410e-01 -1.160798603e-01 +8.475890043e-01 -7.085459920e-02 -7.924053853e-03 -3.836150506e-01
149500000000.000000 -1.059049468e-01 -3.813217958e-01 +8.400010589e-01 -1.483276850e-01 +8.500793023e-01 -1.126241861e-01 -7.911778427e-03 -4.006206859e-01
150000000000.000000 -1.335682209e-01 -3.928772747e-01 +8.227256162e-01 -1.864811535e-01 +8.421308652e-01 -1.322633744e-01 -3.651723149e-02 -4.003704267e-01
