! hatab_megtron7_step30_1p0mm: multiline TRL calibrated (TUGMultilineTRL, scikit-rf 2.1.0)
! raw data ZiadHatab/verification-multiline-trl-calibration @ 021e735, mean of the repeated sweeps
! reference impedance: characteristic impedance of the 94 um 50 Ohm line,
! NOT 50 Ohm; the R value below is a placeholder required by the format
# Hz S RI R 50
1000000000.000000 -7.573373161e-04 -2.443494553e-02 +9.980345049e-01 -7.161546064e-02 +9.980955629e-01 -7.322501412e-02 -1.597428911e-03 -2.514497184e-02
1500000000.000000 -3.126595729e-03 -3.725374208e-02 +9.937015329e-01 -1.068439125e-01 +9.929624386e-01 -1.093626704e-01 -5.275624537e-03 -3.520822893e-02
2000000000.000000 -7.176036220e-03 -4.924217768e-02 +9.887562167e-01 -1.421337617e-01 +9.877272603e-01 -1.444343029e-01 -1.073051830e-02 -4.721800312e-02
2500000000.000000 -9.218272290e-03 -5.795837421e-02 +9.806813992e-01 -1.794080705e-01 +9.809743170e-01 -1.783315559e-01 -1.462011868e-02 -5.900623031e-02
3000000000.000000 -1.064226564e-02 -6.832226443e-02 +9.734025769e-01 -2.144544734e-01 +9.733203643e-01 -2.143972807e-01 -1.944622308e-02 -6.980117951e-02
3500000000.000000 -1.463444114e-02 -8.172542254e-02 +9.637114658e-01 -2.489947739e-01 +9.636472283e-01 -2.490957000e-01 -2.626407142e-02 -7.826450921e-02
4000000000.000000 -2.119812290e-02 -9.226430747e-02 +9.531136222e-01 -2.827397104e-01 +9.527099041e-01 -2.826527356e-01 -3.473413879e-02 -8.643660157e-02
4500000000.000000 -2.578479539e-02 -9.869054265e-02 +9.414221932e-01 -3.160158835e-01 +9.410779579e-01 -3.154068481e-01 -4.377489323e-02 -9.666264362e-02
5000000000.000000 -2.901936816e-02 -1.082447595e-01 +9.286615967e-01 -3.486350552e-01 +9.282138037e-01 -3.481244054e-01 -5.050905633e-02 -1.038095588e-01
5500000000.000000 -3.415061913e-02 -1.181599059e-01 +9.143387206e-01 -3.811220250e-01 +9.144710894e-01 -3.800431141e-01 -5.922359036e-02 -1.087641856e-01
6000000000.000000 -4.281388943e-02 -1.278187170e-01 +8.985907351e-01 -4.124999602e-01 +8.991555516e-01 -4.115694652e-01 -7.046616474e-02 -1.139717409e-01
6500000000.000000 -5.124548029e-02 -1.346321597e-01 +8.820105320e-01 -4.422369238e-01 +8.824060114e-01 -4.413698046e-01 -8.234248938e-02 -1.207039893e-01
7000000000.000000 -5.547232238e-02 -1.392298656e-01 +8.651490753e-01 -4.718274677e-01 +8.650753186e-01 -4.715528152e-01 -9.125600299e-02 -1.243722573e-01
7500000000.000000 -6.338278307e-02 -1.481477860e-01 +8.468251623e-01 -5.010631237e-01 +8.464719343e-01 -5.002985180e-01 -1.014528584e-01 -1.276344643e-01
8000000000.000000 -7.101500327e-02 -1.543889344e-01 +8.277734329e-01 -5.295585457e-01 +8.279819624e-01 -5.287264664e-01 -1.106094917e-01 -1.277820819e-01
8500000000.000000 -8.062273934e-02 -1.595387926e-01 +8.083487287e-01 -5.564517760e-01 +8.076831497e-01 -5.555553491e-01 -1.200411605e-01 -1.295211655e-01
9000000000.000000 -8.882760136e-02 -1.594000205e-01 +7.875031407e-01 -5.835360723e-01 +7.879449603e-01 -5.826032659e-01 -1.314840165e-01 -1.318653338e-01
9500000000.000000 -9.432319345e-02 -1.628096070e-01 +7.656008100e-01 -6.087918313e-01 +7.659070694e-01 -6.079165114e-01 -1.404962660e-01 -1.315621790e-01
10000000000.000000 -1.055286414e-01 -1.689650010e-01 +7.430732917e-01 -6.346853767e-01 +7.437369225e-01 -6.339943347e-01 -1.491104454e-01 -1.303888395e-01
10500000000.000000 -1.192334207e-01 -1.706641746e-01 +7.198444986e-01 -6.581704214e-01 +7.204557624e-01 -6.568470780e-01 -1.603487251e-01 -1.303223393e-01
11000000000.000000 -1.283010120e-01 -1.668887340e-01 +6.951725127e-01 -6.813370166e-01 +6.959172517e-01 -6.796616778e-01 -1.700984057e-01 -1.297808907e-01
11500000000.000000 -1.359828690e-01 -1.716871066e-01 +6.710211869e-01 -7.027120131e-01 +6.713983076e-01 -7.020626891e-01 -1.776885982e-01 -1.283519760e-01
12000000000.000000 -1.470843239e-01 -1.707949076e-01 +6.449825744e-01 -7.243186576e-01 +6.459215401e-01 -7.232203835e-01 -1.882072809e-01 -1.278491975e-01
12500000000.000000 -1.602499380e-01 -1.665608890e-01 +6.203985459e-01 -7.449944208e-01 +6.200681545e-01 -7.443169865e-01 -1.955791363e-01 -1.249938212e-01
13000000000.000000 -1.697499021e-01 -1.618308367e-01 +5.930554290e-01 -7.644571259e-01 +5.931955636e-01 -7.635203572e-01 -2.036417428e-01 -1.224858003e-01
13500000000.000000 -1.786786334e-01 -1.612454953e-01 +5.654840495e-01 -7.816881593e-01 +5.652611669e-01 -7.808448348e-01 -2.111238926e-01 -1.196036724e-01
14000000000.000000 -1.908019289e-01 -1.578780761e-01 +5.376558148e-01 -7.996773675e-01 +5.381312816e-01 -7.995841150e-01 -2.201892638e-01 -1.178988929e-01
14500000000.000000 -2.023867057e-01 -1.508674211e-01 +5.089392759e-01 -8.173019374e-01 +5.096829912e-01 -8.165216745e-01 -2.251442709e-01 -1.137734943e-01
15000000000.000000 -2.135196889e-01 -1.424238541e-01 +4.796320966e-01 -8.322311502e-01 +4.805621101e-01 -8.315591743e-01 -2.370368057e-01 -1.114295680e-01
15500000000.000000 -2.216547150e-01 -1.350657773e-01 +4.486722458e-01 -8.466953695e-01 +4.506381248e-01 -8.464675254e-01 -2.420483877e-01 -1.060471387e-01
16000000000.000000 -2.306026678e-01 -1.293256995e-01 +4.192073843e-01 -8.604677981e-01 +4.202369975e-01 -8.598765512e-01 -2.468321455e-01 -1.047168850e-01
16500000000.000000 -2.460526020e-01 -1.232176220e-01 +3.899910790e-01 -8.731042368e-01 +3.920357959e-01 -8.718703085e-01 -2.563473192e-01 -1.027153419e-01
17000000000.000000 -2.556123393e-01 -1.095966636e-01 +3.586358101e-01 -8.851969658e-01 +3.591098341e-01 -8.834223009e-01 -2.616794996e-01 -9.405300381e-02
17500000000.000000 -2.611618092e-01 -9.799376472e-02 +3.247259912e-01 -8.953341362e-01 +3.254942870e-01 -8.937353726e-01 -2.692387060e-01 -8.920387517e-02
18000000000.000000 -2.683177979e-01 -9.173510740e-02 +2.954340724e-01 -9.051936308e-01 +2.964917799e-01 -9.045441526e-01 -2.755548371e-01 -8.652275534e-02
18500000000.000000 -2.829581446e-01 -8.673106780e-02 +2.684091268e-01 -9.154152589e-01 +2.694973274e-01 -9.152446519e-01 -2.855444828e-01 -8.460635464e-02
19000000000.000000 -2.920458707e-01 -6.632704968e-02 +2.326599421e-01 -9.228487223e-01 +2.345056605e-01 -9.218959325e-01 -2.878298098e-01 -7.255519376e-02
19500000000.000000 -2.965069702e-01 -5.462396858e-02 +2.012768453e-01 -9.261048203e-01 +2.030307904e-01 -9.263276198e-01 -2.929709181e-01 -7.055639346e-02
20000000000.000000 -3.006315292e-01 -4.411213659e-02 +1.688822108e-01 -9.310626630e-01 +1.715464777e-01 -9.290106998e-01 -2.999515681e-01 -6.474857226e-02
20500000000.000000 -3.112148530e-01 -3.585242517e-02 +1.388271081e-01 -9.367058854e-01 +1.397567739e-01 -9.340428164e-01 -3.045374300e-01 -5.616437221e-02
21000000000.000000 -3.202089755e-01 -2.315751935e-02 +1.072613396e-01 -9.391729062e-01 +1.086563128e-01 -9.377999537e-01 -3.147107881e-01 -4.694364271e-02
21500000000.000000 -3.177421348e-01 -2.958431223e-03 +7.374526620e-02 -9.388304066e-01 +7.669941167e-02 -9.381538679e-01 -3.171838281e-01 -3.816832102e-02
22000000000.000000 -3.177615122e-01 +5.972320873e-03 +4.436181911e-02 -9.368594684e-01 +4.504836166e-02 -9.368598522e-01 -3.194041477e-01 -3.348331747e-02
22500000000.000000 -3.304063351e-01 +1.088321841e-02 +1.377509801e-02 -9.372998988e-01 +1.584631379e-02 -9.375594693e-01 -3.313911741e-01 -2.425233907e-02
23000000000.000000 -3.334900912e-01 +2.796738223e-02 -2.065163648e-02 -9.364593287e-01 -1.789198728e-02 -9.367062805e-01 -3.358132036e-01 -1.215997690e-02
23500000000.000000 -3.308163478e-01 +4.767373881e-02 -5.182596187e-02 -9.315393679e-01 -5.018469484e-02 -9.323299519e-01 -3.356607110e-01 -3.475950731e-03
24000000000.000000 -3.324008832e-01 +5.642805429e-02 -8.384161567e-02 -9.252399468e-01 -8.139275484e-02 -9.257449785e-01 -3.446927231e-01 +5.276986920e-03
24500000000.000000 -3.334793286e-01 +6.689004585e-02 -1.138404725e-01 -9.222206646e-01 -1.119913884e-01 -9.223738622e-01 -3.510718437e-01 +1.705097086e-02
25000000000.000000 -3.399416905e-01 +7.820787249e-02 -1.443261326e-01 -9.175703546e-01 -1.434361524e-01 -9.169352885e-01 -3.529530638e-01 +2.995104601e-02
25500000000.000000 -3.428191300e-01 +9.696927732e-02 -1.744706583e-01 -9.100343260e-01 -1.726953075e-01 -9.101605075e-01 -3.555720377e-01 +4.173844185e-02
26000000000.000000 -3.345603601e-01 +1.113657743e-01 -2.044612858e-01 -9.026795979e-01 -2.017300085e-01 -9.023657870e-01 -3.646667619e-01 +4.885310306e-02
26500000000.000000 -3.396974096e-01 +1.181532609e-01 -2.333486132e-01 -8.915748238e-01 -2.303200058e-01 -8.928702260e-01 -3.670413979e-01 +6.362336119e-02
27000000000.000000 -3.480591237e-01 +1.307434414e-01 -2.622011996e-01 -8.825167741e-01 -2.602526126e-01 -8.827823714e-01 -3.648534649e-01 +8.015386949e-02
27500000000.000000 -3.448848949e-01 +1.471577097e-01 -2.901911025e-01 -8.719943934e-01 -2.884458385e-01 -8.720830802e-01 -3.672400811e-01 +9.189799002e-02
28000000000.000000 -3.387421249e-01 +1.674249392e-01 -3.158917157e-01 -8.584714724e-01 -3.161072757e-01 -8.580193688e-01 -3.712111664e-01 +1.014569657e-01
28500000000.000000 -3.330845451e-01 +1.709630970e-01 -3.432819223e-01 -8.461654862e-01 -3.407509642e-01 -8.465250567e-01 -3.712855528e-01 +1.143351916e-01
29000000000.000000 -3.459361715e-01 +1.868769972e-01 -3.731818470e-01 -8.332578060e-01 -3.712969434e-01 -8.346309753e-01 -3.656389532e-01 +1.340458038e-01
29500000000.000000 -3.444812268e-01 +2.024082757e-01 -3.952716955e-01 -8.180685600e-01 -3.929242392e-01 -8.187305051e-01 -3.615118685e-01 +1.498037568e-01
30000000000.000000 -3.361267239e-01 +2.093881603e-01 -4.226697314e-01 -8.031586784e-01 -4.203177303e-01 -8.042366437e-01 -3.618634777e-01 +1.624212266e-01
30500000000.000000 -3.291564470e-01 +2.248358478e-01 -4.605513292e-01 -7.767319550e-01 -4.507760717e-01 -7.830132483e-01 -3.583584899e-01 +1.813897391e-01
31000000000.000000 -3.262834935e-01 +2.357900044e-01 -4.839764372e-01 -7.598511970e-01 -4.740691890e-01 -7.670297188e-01 -3.548981071e-01 +1.961997207e-01
31500000000.000000 -3.255386940e-01 +2.470589893e-01 -5.098273972e-01 -7.408888009e-01 -4.959192612e-01 -7.511493798e-01 -3.501794691e-01 +2.115310316e-01
32000000000.000000 -3.204451979e-01 +2.570303372e-01 -5.296990350e-01 -7.249263047e-01 -5.195901075e-01 -7.337411947e-01 -3.453773465e-01 +2.263428530e-01
32500000000.000000 -3.166652445e-01 +2.664622725e-01 -5.535750920e-01 -7.056692834e-01 -5.407465565e-01 -7.161241671e-01 -3.392895505e-01 +2.412637992e-01
33000000000.000000 -3.139038420e-01 +2.773783712e-01 -5.741781194e-01 -6.867310728e-01 -5.618173094e-01 -6.975626925e-01 -3.326707122e-01 +2.557912830e-01
33500000000.000000 -3.071039357e-01 +2.877202048e-01 -5.945788550e-01 -6.671647479e-01 -5.836464773e-01 -6.772718341e-01 -3.254260108e-01 +2.700122639e-01
34000000000.000000 -3.042688063e-01 +2.980778741e-01 -6.138339194e-01 -6.453566439e-01 -6.032572186e-01 -6.568336841e-01 -3.171161345e-01 +2.851384940e-01
34500000000.000000 -2.982869371e-01 +3.072520503e-01 -6.324504409e-01 -6.249705120e-01 -6.217749890e-01 -6.371124444e-01 -3.091882763e-01 +3.005059981e-01
35000000000.000000 -2.931630331e-01 +3.170037678e-01 -6.503539133e-01 -6.035951306e-01 -6.407041060e-01 -6.156765147e-01 -2.997614287e-01 +3.136855530e-01
35500000000.000000 -2.860035538e-01 +3.281133556e-01 -6.672642967e-01 -5.828352892e-01 -6.580196654e-01 -5.939869261e-01 -2.916746659e-01 +3.261855984e-01
36000000000.000000 -2.786779069e-01 +3.358081551e-01 -6.831138242e-01 -5.616344534e-01 -6.757424575e-01 -5.720480437e-01 -2.821288093e-01 +3.384679060e-01
36500000000.000000 -2.709524452e-01 +3.490355608e-01 -7.001789415e-01 -5.381232204e-01 -6.910573397e-01 -5.504551381e-01 -2.730303050e-01 +3.487190740e-01
37000000000.000000 -2.614028040e-01 +3.576728516e-01 -7.154011083e-01 -5.150845420e-01 -7.067419697e-01 -5.281316589e-01 -2.634778831e-01 +3.606668244e-01
37500000000.000000 -2.535155752e-01 +3.680353103e-01 -7.303937117e-01 -4.908096601e-01 -7.210512178e-01 -5.057702855e-01 -2.527411566e-01 +3.707662433e-01
38000000000.000000 -2.426687515e-01 +3.786071389e-01 -7.441338605e-01 -4.671367107e-01 -7.347770165e-01 -4.821718190e-01 -2.425244918e-01 +3.815488041e-01
38500000000.000000 -2.320920453e-01 +3.883624762e-01 -7.571103449e-01 -4.420684441e-01 -7.485464124e-01 -4.581456012e-01 -2.317347432e-01 +3.909989842e-01
39000000000.000000 -2.208302186e-01 +3.974058035e-01 -7.724745627e-01 -4.131939903e-01 -7.580322154e-01 -4.392890529e-01 -2.216955745e-01 +4.000158663e-01
39500000000.000000 -2.092670024e-01 +4.042116547e-01 -7.809556394e-01 -3.924663751e-01 -7.729906502e-01 -4.092551350e-01 -2.093431300e-01 +4.079218782e-01
40000000000.000000 -1.975155602e-01 +4.124388957e-01 -7.907180419e-01 -3.692646075e-01 -7.859090192e-01 -3.817227520e-01 -1.971891489e-01 +4.156585212e-01
40500000000.000000 -1.841595278e-01 +4.190019490e-01 -8.027818099e-01 -3.409478810e-01 -7.958813860e-01 -3.585894618e-01 -1.843457525e-01 +4.235982716e-01
41000000000.000000 -1.729942109e-01 +4.264504107e-01 -8.117033300e-01 -3.184466005e-01 -8.055963796e-01 -3.335662352e-01 -1.718762459e-01 +4.305132593e-01
41500000000.000000 -1.602951590e-01 +4.335489930e-01 -8.206044408e-01 -2.901835402e-01 -8.141230447e-01 -3.073150968e-01 -1.578743737e-01 +4.372098570e-01
42000000000.000000 -1.474587228e-01 +4.382297257e-01 -8.276548182e-01 -2.665748067e-01 -8.234552866e-01 -2.817068190e-01 -1.452831998e-01 +4.425102764e-01
42500000000.000000 -1.334458585e-01 +4.429138754e-01 -8.364549690e-01 -2.390860390e-01 -8.320879657e-01 -2.551234122e-01 -1.304855171e-01 +4.471333310e-01
43000000000.000000 -1.190968144e-01 +4.491050878e-01 -8.426350337e-01 -2.108244322e-01 -8.384751154e-01 -2.309030981e-01 -1.170157772e-01 +4.522441994e-01
43500000000.000000 -1.044551462e-01 +4.532407165e-01 -8.487885776e-01 -1.853299448e-01 -8.456011674e-01 -2.028345143e-01 -1.031180726e-01 +4.576514399e-01
44000000000.000000 -8.873079364e-02 +4.550016860e-01 -8.534296402e-01 -1.593123933e-01 -8.506163060e-01 -1.744772494e-01 -9.029432869e-02 +4.604411653e-01
44500000000.000000 -7.307121912e-02 +4.593961328e-01 -8.578997464e-01 -1.275309710e-01 -8.540396591e-01 -1.499955789e-01 -7.749570262e-02 +4.640253563e-01
45000000000.000000 -5.817796648e-02 +4.618472532e-01 -8.604396190e-01 -1.053350934e-01 -8.576743976e-01 -1.203678877e-01 -6.419786011e-02 +4.668559482e-01
45500000000.000000 -4.299392494e-02 +4.635270463e-01 -8.632211800e-01 -7.611659407e-02 -8.601430586e-01 -9.390576964e-02 -5.077465533e-02 +4.687295859e-01
46000000000.000000 -2.497809238e-02 +4.653933124e-01 -8.647215762e-01 -5.159336669e-02 -8.627677536e-01 -6.408731784e-02 -3.890031694e-02 +4.705732376e-01
46500000000.000000 -8.571186309e-03 +4.650217670e-01 -8.662050593e-01 -2.364453071e-02 -8.667466829e-01 -3.675526284e-02 -2.705143703e-02 +4.703754704e-01
47000000000.000000 +1.005293599e-02 +4.672181547e-01 -8.656009539e-01 +5.798535904e-03 -8.644873450e-01 -1.029177217e-02 -1.405752098e-02 +4.709152676e-01
47500000000.000000 +2.882052031e-02 +4.660844077e-01 -8.644398847e-01 +3.351775480e-02 -8.641893947e-01 +1.925214489e-02 -1.112823005e-03 +4.716309912e-01
48000000000.000000 +4.781979704e-02 +4.653528658e-01 -8.622837604e-01 +6.033219523e-02 -8.634603708e-01 +4.548719446e-02 +8.832543704e-03 +4.711855184e-01
48500000000.000000 +6.574482028e-02 +4.647823933e-01 -8.598778759e-01 +9.086809266e-02 -8.622360872e-01 +7.145936783e-02 +2.250380147e-02 +4.713869060e-01
49000000000.000000 +8.322926633e-02 +4.613853208e-01 -8.583629005e-01 +1.163008010e-01 -8.576328690e-01 +1.012992086e-01 +3.328906345e-02 +4.711014723e-01
49500000000.000000 +1.017029157e-01 +4.565266816e-01 -8.527900814e-01 +1.438008251e-01 -8.555493060e-01 +1.294180027e-01 +4.298540813e-02 +4.687985988e-01
50000000000.000000 +1.214506222e-01 +4.524360141e-01 -8.468092416e-01 +1.737015664e-01 -8.505540729e-01 +1.556513616e-01 +5.532204440e-02 +4.671933126e-01
50500000000.000000 +1.401505386e-01 +4.445384903e-01 -8.394968689e-01 +2.024841380e-01 -8.452481004e-01 +1.810526723e-01 +6.588419182e-02 +4.651193906e-01
51000000000.000000 +1.583834075e-01 +4.407533211e-01 -8.322021458e-01 +2.301009457e-01 -8.387371972e-01 +2.073115787e-01 +7.898435160e-02 +4.638560865e-01
51500000000.000000 +1.758451349e-01 +4.327231337e-01 -8.250291863e-01 +2.559815798e-01 -8.311988227e-01 +2.351326256e-01 +8.924327651e-02 +4.608223487e-01
52000000000.000000 +1.904936413e-01 +4.255400478e-01 -8.173341634e-01 +2.816979372e-01 -8.237066809e-01 +2.628860586e-01 +9.983910738e-02 +4.590151176e-01
52500000000.000000 +2.096152948e-01 +4.165812573e-01 -8.083899219e-01 +3.068188292e-01 -8.141146651e-01 +2.923372176e-01 +1.115510296e-01 +4.556387759e-01
53000000000.000000 +2.231233819e-01 +4.056668062e-01 -7.976966622e-01 +3.323851649e-01 -8.052736332e-01 +3.159535541e-01 +1.218719813e-01 +4.503507562e-01
53500000000.000000 +2.380827412e-01 +3.966445354e-01 -7.869004199e-01 +3.605678137e-01 -7.966136677e-01 +3.404080580e-01 +1.328922672e-01 +4.470405557e-01
54000000000.000000 +2.516824289e-01 +3.841797990e-01 -7.754225585e-01 +3.854670350e-01 -7.856591965e-01 +3.657056932e-01 +1.430693402e-01 +4.416204217e-01
54500000000.000000 +2.644086653e-01 +3.764538092e-01 -7.665308084e-01 +4.073631967e-01 -7.736898776e-01 +3.928771408e-01 +1.549063164e-01 +4.351597413e-01
55000000000.000000 +2.791561251e-01 +3.634419835e-01 -7.515581671e-01 +4.354942717e-01 -7.618883778e-01 +4.186065112e-01 +1.660605928e-01 +4.310943990e-01
55500000000.000000 +2.875684395e-01 +3.525800994e-01 -7.383887599e-01 +4.577052852e-01 -7.483879782e-01 +4.423698445e-01 +1.786918901e-01 +4.227436059e-01
56000000000.000000 +2.968703759e-01 +3.411721489e-01 -7.289767979e-01 +4.773531287e-01 -7.345080273e-01 +4.697368433e-01 +1.894514120e-01 +4.166716233e-01
56500000000.000000 +3.075024661e-01 +3.297265629e-01 -7.068411182e-01 +5.097841282e-01 -7.253392576e-01 +4.868855304e-01 +2.005658945e-01 +4.067152772e-01
57000000000.000000 +3.187446168e-01 +3.165894379e-01 -6.895399281e-01 +5.346628701e-01 -7.082511887e-01 +5.118235272e-01 +2.127037326e-01 +3.998583371e-01
57500000000.000000 +3.249855271e-01 +3.051087252e-01 -6.803159138e-01 +5.489847471e-01 -6.930321126e-01 +5.344870060e-01 +2.203866275e-01 +3.922286320e-01
58000000000.000000 +3.343960048e-01 +2.951557846e-01 -6.600801399e-01 +5.744199937e-01 -6.770918752e-01 +5.568256848e-01 +2.330797473e-01 +3.805290452e-01
58500000000.000000 +3.428985717e-01 +2.828092939e-01 -6.455763154e-01 +5.937558174e-01 -6.597202242e-01 +5.796517782e-01 +2.411932014e-01 +3.722045863e-01
59000000000.000000 +3.493797348e-01 +2.664619234e-01 -6.275526840e-01 +6.145635217e-01 -6.387703817e-01 +6.036263795e-01 +2.504013958e-01 +3.632084663e-01
59500000000.000000 +3.538289872e-01 +2.526915996e-01 -6.097684987e-01 +6.351817995e-01 -6.223214742e-01 +6.230251735e-01 +2.586790128e-01 +3.536214615e-01
60000000000.000000 +3.604497283e-01 +2.336073799e-01 -5.831326835e-01 +6.593356188e-01 -6.059887843e-01 +6.400845314e-01 +2.669949428e-01 +3.444864249e-01
60500000000.000000 +3.647957858e-01 +2.236078462e-01 -5.701942809e-01 +6.737749896e-01 -5.877262739e-01 +6.578996942e-01 +2.731066525e-01 +3.334256294e-01
61000000000.000000 +3.700500048e-01 +2.075430125e-01 -5.452141475e-01 +6.951558183e-01 -5.649952985e-01 +6.792728232e-01 +2.841892132e-01 +3.217292412e-01
61500000000.000000 +3.716990828e-01 +2.005004618e-01 -5.300690943e-01 +7.062224947e-01 -5.463059130e-01 +6.961346799e-01 +2.897100108e-01 +3.095101962e-01
62000000000.000000 +3.756903508e-01 +1.836442473e-01 -5.087210688e-01 +7.257039012e-01 -5.234961221e-01 +7.169715681e-01 +2.953283863e-01 +2.988370283e-01
62500000000.000000 +3.803399589e-01 +1.656743250e-01 -4.804677262e-01 +7.476793426e-01 -4.990698880e-01 +7.333879749e-01 +2.995004033e-01 +2.872611095e-01
63000000000.000000 +3.785103345e-01 +1.500526430e-01 -4.533201819e-01 +7.645227561e-01 -4.757342989e-01 +7.524409043e-01 +3.063237232e-01 +2.758760614e-01
63500000000.000000 +3.814967650e-01 +1.366657816e-01 -4.360292811e-01 +7.780621807e-01 -4.526750019e-01 +7.712761520e-01 +3.092208595e-01 +2.636592734e-01
64000000000.000000 +3.837367254e-01 +1.229650220e-01 -4.067641770e-01 +7.953253117e-01 -4.280152907e-01 +7.866993260e-01 +3.144650969e-01 +2.478830118e-01
64500000000.000000 +3.808352508e-01 +1.116954126e-01 -3.747431461e-01 +8.125587973e-01 -4.045468613e-01 +7.993415233e-01 +3.221728227e-01 +2.307605325e-01
65000000000.000000 +3.778651729e-01 +9.794612620e-02 -3.622792371e-01 +8.195325972e-01 -3.784981142e-01 +8.137507561e-01 +3.210041879e-01 +2.238092080e-01
65500000000.000000 +3.785115469e-01 +8.519975038e-02 -3.283696664e-01 +8.376846519e-01 -3.548814658e-01 +8.267052359e-01 +3.218786697e-01 +2.066778792e-01
66000000000.000000 +3.720975322e-01 +7.294257806e-02 -2.970018404e-01 +8.525074551e-01 -3.254465672e-01 +8.411897761e-01 +3.237702924e-01 +1.904989602e-01
66500000000.000000 +3.699227152e-01 +5.842631197e-02 -2.694800465e-01 +8.643659576e-01 -3.012059380e-01 +8.530140280e-01 +3.246702416e-01 +1.776652908e-01
67000000000.000000 +3.653596620e-01 +4.554141689e-02 -2.410187000e-01 +8.739084937e-01 -2.748927392e-01 +8.645110066e-01 +3.257277913e-01 +1.660452008e-01
67500000000.000000 +3.590511085e-01 +3.685577830e-02 -2.163741244e-01 +8.828754308e-01 -2.445902998e-01 +8.756781874e-01 +3.253253810e-01 +1.511794069e-01
68000000000.000000 +3.562800628e-01 +1.838827550e-02 -1.810268838e-01 +8.926020513e-01 -2.169591266e-01 +8.863514398e-01 +3.229378100e-01 +1.374588939e-01
68500000000.000000 +3.502025573e-01 +1.542492955e-02 -1.666300808e-01 +8.983479616e-01 -1.862911907e-01 +8.944770358e-01 +3.236789928e-01 +1.268097783e-01
69000000000.000000 +3.427618461e-01 +4.193868614e-03 -1.259773942e-01 +9.064231960e-01 -1.579514315e-01 +9.005870595e-01 +3.238263355e-01 +1.106160584e-01
69500000000.000000 +3.353827627e-01 -1.060960063e-02 -8.917379825e-02 +9.128558843e-01 -1.261070976e-01 +9.075273995e-01 +3.209803956e-01 +9.826173830e-02
70000000000.000000 +3.292679076e-01 -1.181283025e-02 -7.361635686e-02 +9.153136797e-01 -1.022165355e-01 +9.125993080e-01 +3.187701384e-01 +8.353549870e-02
70500000000.000000 +3.275971315e-01 -2.565808531e-02 -3.883153243e-02 +9.181242237e-01 -7.202888602e-02 +9.173882300e-01 +3.162596041e-01 +7.301625640e-02
71000000000.000000 +3.169934578e-01 -4.297362325e-02 +2.715155836e-03 +9.219146358e-01 -4.147923416e-02 +9.234757583e-01 +3.118211683e-01 +6.448836329e-02
71500000000.000000 +3.097276198e-01 -5.002412524e-02 +2.909084334e-02 +9.223093188e-01 -7.909706674e-03 +9.229191387e-01 +3.066381412e-01 +5.278046238e-02
72000000000.000000 +3.006650474e-01 -6.139285635e-02 +5.483741391e-02 +9.224360044e-01 +2.163258889e-02 +9.219090746e-01 +3.045748570e-01 +4.461105865e-02
72500000000.000000 +2.939146624e-01 -7.077749971e-02 +9.283020652e-02 +9.220565803e-01 +5.162977575e-02 +9.258074936e-01 +3.010399141e-01 +3.163403732e-02
73000000000.000000 +2.825714201e-01 -7.910470828e-02 +1.236459842e-01 +9.178203895e-01 +8.350633743e-02 +9.264706998e-01 +2.971486854e-01 +2.208024586e-02
73500000000.000000 +2.773805828e-01 -8.463988485e-02 +1.491584611e-01 +9.167781203e-01 +1.141146863e-01 +9.240168159e-01 +2.913997952e-01 +9.603742174e-03
74000000000.000000 +2.667955505e-01 -9.833087556e-02 +1.970775820e-01 +9.074035120e-01 +1.434571913e-01 +9.208948550e-01 +2.879064207e-01 +1.939890569e-03
74500000000.000000 +2.593309983e-01 -9.563020050e-02 +2.079853648e-01 +9.068299811e-01 +1.743546730e-01 +9.146491142e-01 +2.831941948e-01 -7.380891566e-03
75000000000.000000 +2.535763593e-01 -1.113770430e-01 +2.485933200e-01 +8.985304743e-01 +2.103049648e-01 +9.060628386e-01 +2.807843072e-01 -1.588066067e-02
75500000000.000000 +2.438221993e-01 -1.193965592e-01 +2.768751587e-01 +8.917870476e-01 +2.418352298e-01 +9.034375657e-01 +2.748816062e-01 -2.206458679e-02
76000000000.000000 +2.355317743e-01 -1.232040963e-01 +3.019285256e-01 +8.853955815e-01 +2.724414828e-01 +8.969241116e-01 +2.701849394e-01 -3.069754077e-02
76500000000.000000 +2.240859905e-01 -1.333456388e-01 +3.458522281e-01 +8.722224077e-01 +3.057202996e-01 +8.829912782e-01 +2.625228865e-01 -4.004094332e-02
77000000000.000000 +2.212022502e-01 -1.344990741e-01 +3.530192633e-01 +8.691205657e-01 +3.390890050e-01 +8.776681889e-01 +2.582673427e-01 -4.466988436e-02
77500000000.000000 +2.082415738e-01 -1.412328455e-01 +3.989352483e-01 +8.466985909e-01 +3.657691088e-01 +8.656083700e-01 +2.511176013e-01 -5.739021036e-02
78000000000.000000 +2.004684674e-01 -1.520108389e-01 +4.419128038e-01 +8.276297145e-01 +3.960439815e-01 +8.525205243e-01 +2.469813462e-01 -6.227650882e-02
78500000000.000000 +1.897837113e-01 -1.528341510e-01 +4.605079304e-01 +8.182410342e-01 +4.250232717e-01 +8.359055831e-01 +2.372917387e-01 -6.933815901e-02
79000000000.000000 +1.807121602e-01 -1.523144453e-01 +4.842404736e-01 +8.073842970e-01 +4.558326783e-01 +8.255247504e-01 +2.288699391e-01 -7.420495761e-02
79500000000.000000 +1.771896298e-01 -1.580432312e-01 +5.100430972e-01 +7.925982743e-01 +4.894137345e-01 +8.072729516e-01 +2.214912588e-01 -8.102571813e-02
80000000000.000000 +1.647272776e-01 -1.608341007e-01 +5.445569538e-01 +7.706747601e-01 +5.145039205e-01 +7.906257650e-01 +2.147431441e-01 -8.518125169e-02
80500000000.000000 +1.616646439e-01 -1.562591400e-01 +5.603640160e-01 +7.628164737e-01 +5.413552534e-01 +7.759189357e-01 +2.042857006e-01 -9.070455857e-02
81000000000.000000 +1.441782072e-01 -1.636068034e-01 +5.904943083e-01 +7.381519136e-01 +5.660630317e-01 +7.545975471e-01 +1.948821274e-01 -9.449340502e-02
81500000000.000000 +1.369237979e-01 -1.685631825e-01 +6.337320232e-01 +7.027279426e-01 +5.955208520e-01 +7.356649002e-01 +1.857340014e-01 -1.009771538e-01
82000000000.000000 +1.252512816e-01 -1.568872763e-01 +6.645836501e-01 +6.798501326e-01 +6.224972030e-01 +7.171333529e-01 +1.749703703e-01 -1.040499152e-01
82500000000.000000 +1.235391760e-01 -1.563773551e-01 +6.775378970e-01 +6.649119541e-01 +6.477726827e-01 +6.939996107e-01 +1.640031550e-01 -1.051806119e-01
83000000000.000000 +1.201387327e-01 -1.600347055e-01 +6.881204829e-01 +6.554269902e-01 +6.739681071e-01 +6.717754175e-01 +1.568123531e-01 -1.069482842e-01
83500000000.000000 +1.013614692e-01 -1.521702795e-01 +7.225964425e-01 +6.207730693e-01 +6.984695034e-01 +6.504736733e-01 +1.457678240e-01 -1.077313178e-01
84000000000.000000 +9.405734572e-02 -1.491364899e-01 +7.409034537e-01 +6.013706678e-01 +7.228332187e-01 +6.231932362e-01 +1.364739444e-01 -1.072622195e-01
84500000000.000000 +8.437891628e-02 -1.443393871e-01 +7.708365205e-01 +5.661973876e-01 +7.436598168e-01 +6.014841771e-01 +1.262809442e-01 -1.071124501e-01
85000000000.000000 +7.958379208e-02 -1.405252579e-01 +7.897779236e-01 +5.407493153e-01 +7.673553957e-01 +5.730695731e-01 +1.169023805e-01 -1.075927005e-01
85500000000.000000 +6.669752179e-02 -1.345371701e-01 +8.110440955e-01 +5.137666730e-01 +7.897798552e-01 +5.476629023e-01 +1.088867375e-01 -1.041266536e-01
86000000000.000000 +6.515641359e-02 -1.314963225e-01 +8.298162659e-01 +4.871620072e-01 +8.053185543e-01 +5.250778436e-01 +9.796329535e-02 -1.020577731e-01
86500000000.000000 +5.472570505e-02 -1.228997278e-01 +8.519167105e-01 +4.477199169e-01 +8.241110047e-01 +4.942785256e-01 +8.792607132e-02 -9.788466203e-02
87000000000.000000 +5.515570374e-02 -1.116278041e-01 +8.636675092e-01 +4.251126271e-01 +8.426752149e-01 +4.644275387e-01 +7.756953046e-02 -9.429348429e-02
87500000000.000000 +4.137872162e-02 -1.111284524e-01 +8.814622023e-01 +3.909924817e-01 +8.595800931e-01 +4.334430032e-01 +7.037045563e-02 -8.890594365e-02
88000000000.000000 +3.293647150e-02 -9.173424744e-02 +8.918977823e-01 +3.676176366e-01 +8.817537592e-01 +3.992544631e-01 +6.158091659e-02 -8.309802205e-02
88500000000.000000 +3.805706305e-02 -9.226916120e-02 +9.096016252e-01 +3.342436516e-01 +8.942588313e-01 +3.746377412e-01 +5.367197432e-02 -7.659420529e-02
89000000000.000000 +2.757757587e-02 -7.955900300e-02 +9.259396214e-01 +2.905740876e-01 +9.057383593e-01 +3.394683278e-01 +4.442921164e-02 -7.050438093e-02
89500000000.000000 +3.206258827e-02 -6.875353179e-02 +9.327824752e-01 +2.568439736e-01 +9.175776238e-01 +3.073499019e-01 +3.632557934e-02 -6.317809267e-02
90000000000.000000 +2.486229855e-02 -5.446927637e-02 +9.484488507e-01 +2.177504116e-01 +9.288531058e-01 +2.743517246e-01 +2.976990988e-02 -5.230466981e-02
90500000000.000000 +2.610295298e-02 -3.839373549e-02 +9.464581763e-01 +2.041356278e-01 +9.355963875e-01 +2.428457827e-01 +2.085983484e-02 -4.041516700e-02
91000000000.000000 +2.286884891e-02 -3.422910547e-02 +9.546187331e-01 +1.645661276e-01 +9.486919429e-01 +2.078275651e-01 +1.476676799e-02 -3.217484574e-02
91500000000.000000 +2.358294560e-02 -2.117360680e-02 +9.616838183e-01 +1.221464749e-01 +9.567625776e-01 +1.721481524e-01 +9.760636508e-03 -2.108247588e-02
92000000000.000000 +2.468447716e-02 -9.584887024e-03 +9.643662243e-01 +8.236465576e-02 +9.595481871e-01 +1.336152717e-01 +5.008513000e-03 -9.140339312e-03
92500000000.000000 +2.520437343e-02 +1.320884071e-03 +9.650448780e-01 +5.050257944e-02 +9.636891337e-01 +9.668586581e-02 +1.436516057e-03 +1.302861084e-03
93000000000.000000 +2.984517292e-02 +1.379788718e-02 +9.651339800e-01 +2.330180229e-02 +9.633437552e-01 +6.497855941e-02 -1.190976992e-03 +1.460105096e-02
93500000000.000000 +2.936015228e-02 +2.193208775e-02 +9.665245542e-01 -6.937787037e-03 +9.729880703e-01 +2.416876092e-02 -4.691506048e-03 +2.694947259e-02
94000000000.000000 +3.356293984e-02 +4.064116234e-02 +9.644976587e-01 -4.171746334e-02 +9.696607495e-01 -3.466855538e-03 -2.879044034e-03 +3.987318964e-02
94500000000.000000 +3.915965890e-02 +4.589744345e-02 +9.574912019e-01 -9.712337567e-02 +9.632509712e-01 -3.635725464e-02 -5.872923308e-03 +4.929638090e-02
95000000000.000000 +4.286393269e-02 +5.700278984e-02 +9.552589634e-01 -1.188838978e-01 +9.618683769e-01 -7.143752066e-02 +4.727340585e-04 +6.304505043e-02
95500000000.000000 +4.947603375e-02 +6.750031541e-02 +9.510064675e-01 -1.568635769e-01 +9.583026720e-01 -1.047135667e-01 -7.681619291e-04 +7.597765332e-02
96000000000.000000 +4.913418905e-02 +7.924253939e-02 +9.378827648e-01 -2.011998822e-01 +9.480248575e-01 -1.456293984e-01 +7.095909570e-03 +8.454564449e-02
96500000000.000000 +5.411793005e-02 +8.465778832e-02 +9.346619220e-01 -2.268103473e-01 +9.433800977e-01 -1.776935220e-01 +7.815812246e-03 +9.791665907e-02
97000000000.000000 +6.568764951e-02 +1.025968474e-01 +9.257374805e-01 -2.488441779e-01 +9.374275785e-01 -2.108681420e-01 +1.389888962e-02 +1.093104551e-01
97500000000.000000 +6.807302509e-02 +1.023169185e-01 +9.179880289e-01 -2.772250831e-01 +9.251516536e-01 -2.427151215e-01 +1.924790259e-02 +1.173325287e-01
98000000000.000000 +8.292674588e-02 +1.001943308e-01 +8.999250404e-01 -3.237952675e-01 +9.127752525e-01 -2.845062059e-01 +2.569451424e-02 +1.269173839e-01
98500000000.000000 +8.120701700e-02 +1.169640313e-01 +8.937194394e-01 -3.389263538e-01 +9.020729280e-01 -3.124533578e-01 +3.705404087e-02 +1.352681162e-01
99000000000.000000 +9.053742518e-02 +1.234150578e-01 +8.768984358e-01 -3.792107660e-01 +8.956988253e-01 -3.416192846e-01 +4.496957224e-02 +1.438550870e-01
99500000000.000000 +8.824591394e-02 +1.294813849e-01 +8.587963768e-01 -4.104078561e-01 +8.818318605e-01 -3.651158412e-01 +5.496358411e-02 +1.511086270e-01
100000000000.000000 +9.678348766e-02 +1.357246276e-01 +8.420521945e-01 -4.334576092e-01 +8.638628402e-01 -3.974437421e-01 +6.501752981e-02 +1.568276430e-01
100500000000.000000 +1.100547535e-01 +1.335348094e-01 +8.191078651e-01 -4.790008182e-01 +8.477833551e-01 -4.327547532e-01 +7.468846590e-02 +1.621217478e-01
101000000000.000000 +1.173948894e-01 +1.441382029e-01 +8.043979938e-01 -5.043148587e-01 +8.314416631e-01 -4.601941211e-01 +8.776373069e-02 +1.674449472e-01
101500000000.000000 +1.237547669e-01 +1.498539316e-01 +7.929263625e-01 -5.218144285e-01 +8.165983604e-01 -4.836439266e-01 +9.942931849e-02 +1.731553367e-01
102000000000.000000 +1.290936717e-01 +1.497613967e-01 +7.692992046e-01 -5.528095050e-01 +7.935541159e-01 -5.128601267e-01 +1.109372557e-01 +1.741618431e-01
102500000000.000000 +1.448437508e-01 +1.490092750e-01 +7.410357528e-01 -5.860542038e-01 +7.764899773e-01 -5.387743173e-01 +1.227897927e-01 +1.772789258e-01
103000000000.000000 +1.495531620e-01 +1.466039336e-01 +7.185610359e-01 -6.075407415e-01 +7.531313203e-01 -5.639714844e-01 +1.334757048e-01 +1.769823616e-01
103500000000.000000 +1.601380183e-01 +1.369545352e-01 +6.958422999e-01 -6.317380715e-01 +7.280940300e-01 -5.959496465e-01 +1.397753488e-01 +1.815179770e-01
104000000000.000000 +1.729944917e-01 +1.405677570e-01 +6.852759484e-01 -6.396558780e-01 +7.102018129e-01 -6.198044765e-01 +1.521079049e-01 +1.848791099e-01
104500000000.000000 +1.799966319e-01 +1.511752235e-01 +6.552377894e-01 -6.653255088e-01 +6.956952676e-01 -6.319362762e-01 +1.603642433e-01 +1.840250758e-01
105000000000.000000 +1.904246002e-01 +1.435020770e-01 +6.273867108e-01 -6.899054864e-01 +6.640821004e-01 -6.551416087e-01 +1.688198187e-01 +1.847566338e-01
105500000000.000000 +2.065983825e-01 +1.403716167e-01 +5.987371065e-01 -7.109945067e-01 +6.359211022e-01 -6.747709615e-01 +1.804161044e-01 +1.823576492e-01
106000000000.000000 +2.201322595e-01 +1.359544672e-01 +5.762543499e-01 -7.317729443e-01 +6.150411179e-01 -7.026587052e-01 +1.863893232e-01 +1.867297121e-01
106500000000.000000 +2.234532362e-01 +1.343889381e-01 +5.400616226e-01 -7.603704611e-01 +5.987593265e-01 -7.144971291e-01 +2.009307960e-01 +1.815381557e-01
107000000000.000000 +2.318497794e-01 +1.360536200e-01 +5.169638759e-01 -7.718454177e-01 +5.812446821e-01 -7.262536279e-01 +2.091018254e-01 +1.818106954e-01
107500000000.000000 +2.443375064e-01 +1.157228576e-01 +4.765050642e-01 -7.965106161e-01 +5.575011222e-01 -7.433850180e-01 +2.148254505e-01 +1.817754650e-01
108000000000.000000 +2.652011919e-01 +1.052183498e-01 +4.622031243e-01 -7.975201960e-01 +5.100155094e-01 -7.729929065e-01 +2.258151564e-01 +1.788591149e-01
108500000000.000000 +2.584005517e-01 +1.041285900e-01 +4.431135524e-01 -8.093049024e-01 +4.843296222e-01 -7.847146258e-01 +2.310209239e-01 +1.760236400e-01
109000000000.000000 +2.710268626e-01 +9.503937593e-02 +4.121400192e-01 -8.229265971e-01 +4.534649225e-01 -8.013670213e-01 +2.445109490e-01 +1.696964386e-01
109500000000.000000 +2.788962259e-01 +8.789275996e-02 +3.710412258e-01 -8.414624229e-01 +4.315069000e-01 -8.216797952e-01 +2.544199781e-01 +1.657324576e-01
110000000000.000000 +2.741696171e-01 +8.089543495e-02 +3.504288115e-01 -8.512722148e-01 +3.930154094e-01 -8.265277509e-01 +2.546376364e-01 +1.616439581e-01
110500000000.000000 +2.856168716e-01 +6.089474229e-02 +3.165266971e-01 -8.550344326e-01 +3.764932316e-01 -8.363365371e-01 +2.674445999e-01 +1.579400569e-01
111000000000.000000 +2.970985373e-01 +5.103031863e-02 +2.941693509e-01 -8.676919243e-01 +3.307597179e-01 -8.475583490e-01 +2.753148505e-01 +1.454635424e-01
111500000000.000000 +3.089463422e-01 +3.486369618e-02 +2.609186653e-01 -8.822645957e-01 +3.185339546e-01 -8.656800060e-01 +2.922302817e-01 +1.483144776e-01
112000000000.000000 +2.997664745e-01 +2.592320898e-02 +2.429064338e-01 -8.801924865e-01 +2.910444518e-01 -8.666943807e-01 +2.866859889e-01 +1.363286169e-01
112500000000.000000 +3.135913405e-01 +2.554199212e-02 +2.113435981e-01 -8.802590147e-01 +2.595157122e-01 -8.771530039e-01 +2.938181918e-01 +1.336353972e-01
113000000000.000000 +3.099240674e-01 -1.084629498e-02 +1.741274975e-01 -8.918057806e-01 +2.308415383e-01 -8.828911411e-01 +3.046668544e-01 +1.242163386e-01
113500000000.000000 +3.099367357e-01 -9.754981138e-03 +1.447930943e-01 -8.797181959e-01 +1.900912382e-01 -8.882186233e-01 +3.069511205e-01 +1.218446524e-01
114000000000.000000 +3.152715657e-01 -2.453463364e-02 +1.113389201e-01 -9.030045591e-01 +1.740434437e-01 -9.047638178e-01 +3.185341567e-01 +1.180112895e-01
114500000000.000000 +3.209933861e-01 -4.898439661e-02 +7.955287950e-02 -8.992418981e-01 +1.329188035e-01 -8.967289998e-01 +3.168848264e-01 +1.124141107e-01
115000000000.000000 +3.164438474e-01 -4.651633811e-02 +3.068283223e-02 -9.157478686e-01 +1.036775925e-01 -9.102521879e-01 +3.303893004e-01 +8.810663292e-02
115500000000.000000 +3.251131347e-01 -4.803095535e-02 +2.145282180e-02 -9.108871169e-01 +7.783773867e-02 -9.016300612e-01 +3.358458184e-01 +9.022885284e-02
116000000000.000000 +3.085377769e-01 -6.949336543e-02 +7.993530425e-03 -9.083615141e-01 +3.837087435e-02 -8.975971478e-01 +3.392610289e-01 +8.752726539e-02
116500000000.000000 +3.181237783e-01 -8.652451402e-02 -3.909257282e-02 -9.032840983e-01 -9.090816454e-04 -9.064252262e-01 +3.376457059e-01 +6.721836334e-02
117000000000.000000 +3.259420106e-01 -1.061813720e-01 -6.540106892e-02 -9.012400361e-01 -1.237874992e-02 -9.062115822e-01 +3.476762612e-01 +6.196628186e-02
117500000000.000000 +3.227083166e-01 -1.029067842e-01 -8.672718165e-02 -8.926193511e-01 -5.740142772e-02 -8.980708449e-01 +3.532257826e-01 +5.806065401e-02
118000000000.000000 +3.214926343e-01 -1.432464344e-01 -1.172643121e-01 -8.869173839e-01 -6.997288870e-02 -9.120452630e-01 +3.614516437e-01 +4.289330546e-02
118500000000.000000 +3.099066075e-01 -1.335968084e-01 -1.554729191e-01 -8.800267888e-01 -9.481614997e-02 -8.900090584e-01 +3.633999090e-01 +3.054196645e-02
119000000000.000000 +2.919594680e-01 -1.653788068e-01 -1.998624011e-01 -8.709934326e-01 -1.332828668e-01 -8.800483030e-01 +3.621631152e-01 +2.500403292e-02
119500000000.000000 +3.089239466e-01 -1.598069395e-01 -2.081511380e-01 -8.733594411e-01 -1.668714861e-01 -8.814033520e-01 +3.707318025e-01 +9.649785422e-03
120000000000.000000 +3.074283612e-01 -1.989211991e-01 -2.493443784e-01 -8.587967009e-01 -1.828765933e-01 -8.692614499e-01 +3.735143643e-01 +8.366368783e-03
120500000000.000000 +2.982828391e-01 -1.954919853e-01 -2.764195641e-01 -8.497485832e-01 -2.214374344e-01 -8.623277059e-01 +3.728664204e-01 -8.285096514e-03
121000000000.000000 +2.910288075e-01 -2.026708804e-01 -2.949805769e-01 -8.419005338e-01 -2.408343328e-01 -8.583447678e-01 +3.759317024e-01 -1.970060043e-02
121500000000.000000 +2.740551231e-01 -2.527687205e-01 -3.567024606e-01 -8.083629386e-01 -2.743760354e-01 -8.458034224e-01 +3.800366017e-01 -2.940019561e-02
122000000000.000000 +2.909898957e-01 -2.287978498e-01 -3.516509716e-01 -8.139236966e-01 -2.979739641e-01 -8.329432890e-01 +3.767880644e-01 -4.668219495e-02
122500000000.000000 +2.833374183e-01 -2.539753218e-01 -3.934855766e-01 -8.001882168e-01 -3.370617047e-01 -8.097362534e-01 +3.771298119e-01 -6.252460931e-02
123000000000.000000 +2.684857937e-01 -2.553424308e-01 -4.067793581e-01 -7.913126330e-01 -3.648703194e-01 -8.108720760e-01 +3.758548098e-01 -7.522668774e-02
123500000000.000000 +2.679032061e-01 -2.621804472e-01 -4.265705724e-01 -7.785051157e-01 -3.732743093e-01 -7.998312881e-01 +3.692972724e-01 -8.962925960e-02
124000000000.000000 +2.529374659e-01 -2.747562327e-01 -4.553710196e-01 -7.556684831e-01 -4.097527470e-01 -7.752876403e-01 +3.773415454e-01 -1.032725208e-01
124500000000.000000 +2.532057096e-01 -2.920855859e-01 -4.711561821e-01 -7.408433728e-01 -4.387212738e-01 -7.752668366e-01 +3.634776102e-01 -1.188316127e-01
125000000000.000000 +2.552915449e-01 -2.921723426e-01 -5.111527498e-01 -7.073515416e-01 -4.455634876e-01 -7.618740059e-01 +3.589281264e-01 -1.378771502e-01
125500000000.000000 +2.479918177e-01 -2.814152828e-01 -5.335095643e-01 -6.890556142e-01 -4.719853031e-01 -7.295937314e-01 +3.565633375e-01 -1.561680301e-01
126000000000.000000 +2.511192236e-01 -3.057728260e-01 -5.666689568e-01 -6.699744251e-01 -5.031831137e-01 -7.123193290e-01 +3.516306972e-01 -1.741536130e-01
126500000000.000000 +2.361724633e-01 -3.204242673e-01 -5.803316825e-01 -6.552386164e-01 -5.173724032e-01 -7.163069646e-01 +3.518494523e-01 -1.831424428e-01
127000000000.000000 +2.405149834e-01 -3.307514793e-01 -6.139383300e-01 -6.222103080e-01 -5.305862040e-01 -6.942243601e-01 +3.404849331e-01 -1.956488565e-01
127500000000.000000 +2.364542125e-01 -3.047623311e-01 -6.123467931e-01 -6.405897657e-01 -5.698971975e-01 -6.694983177e-01 +3.322863835e-01 -2.090380241e-01
128000000000.000000 +2.322297481e-01 -3.362384720e-01 -6.238002847e-01 -5.993616881e-01 -5.983014411e-01 -6.377461985e-01 +3.347361494e-01 -2.363531555e-01
128500000000.000000 +1.967591213e-01 -3.530238348e-01 -6.326408493e-01 -5.901683417e-01 -6.080002435e-01 -6.274849627e-01 +3.332554334e-01 -2.272621246e-01
129000000000.000000 +2.018671921e-01 -3.652798208e-01 -6.604135446e-01 -5.504934513e-01 -6.240894127e-01 -5.929594111e-01 +3.143795788e-01 -2.504185313e-01
129500000000.000000 +1.926466685e-01 -3.551621455e-01 -6.901545802e-01 -5.276435969e-01 -6.711509231e-01 -5.677151818e-01 +2.967545166e-01 -2.663760915e-01
130000000000.000000 +1.760391967e-01 -3.690612150e-01 -7.030984148e-01 -5.166418672e-01 -6.767452073e-01 -5.543400199e-01 +2.872096650e-01 -2.775739150e-01
130500000000.000000 +1.652955445e-01 -3.792062351e-01 -7.245602891e-01 -4.752023748e-01 -6.836413723e-01 -5.325378546e-01 +2.843740992e-01 -2.966148777e-01
131000000000.000000 +1.595470977e-01 -3.843108432e-01 -7.302429686e-01 -4.435306085e-01 -7.030877672e-01 -5.086016794e-01 +2.873522006e-01 -2.996865103e-01
131500000000.000000 +1.531167366e-01 -3.881478274e-01 -7.520468758e-01 -4.185011940e-01 -7.062499553e-01 -4.866638546e-01 +2.739683962e-01 -3.030684923e-01
132000000000.000000 +1.416013075e-01 -4.040967243e-01 -7.689370655e-01 -3.825641950e-01 -7.403038570e-01 -4.496788117e-01 +2.463106832e-01 -3.222012906e-01
132500000000.000000 +1.414963997e-01 -4.054347929e-01 -7.834388945e-01 -3.690476984e-01 -7.428718643e-01 -4.473097034e-01 +2.433810214e-01 -3.360329923e-01
133000000000.000000 +1.387141122e-01 -3.927306135e-01 -7.750528914e-01 -3.594055376e-01 -7.497901148e-01 -4.101866569e-01 +2.393325950e-01 -3.599739504e-01
133500000000.000000 +1.115967456e-01 -4.018733780e-01 -7.973605380e-01 -3.132704261e-01 -7.689981848e-01 -3.758922676e-01 +2.278033097e-01 -3.641324089e-01
134000000000.000000 +9.881816909e-02 -4.460761099e-01 -8.106840483e-01 -2.854329646e-01 -7.898063584e-01 -3.575394290e-01 +2.149746599e-01 -3.551339772e-01
134500000000.000000 +1.109074976e-01 -4.216319786e-01 -8.230909910e-01 -2.711503559e-01 -8.010447935e-01 -3.376977007e-01 +1.829290107e-01 -3.862059774e-01
135000000000.000000 +8.882752577e-02 -4.282472528e-01 -8.386884944e-01 -2.558924354e-01 -7.957884329e-01 -3.166582231e-01 +1.734752271e-01 -3.979908697e-01
135500000000.000000 +8.379694716e-02 -4.009934065e-01 -8.217522830e-01 -2.354362205e-01 -8.100065453e-01 -2.824645495e-01 +1.705268423e-01 -4.068162452e-01
136000000000.000000 +5.566515559e-02 -4.224440650e-01 -8.277378942e-01 -1.850121848e-01 -8.122062683e-01 -2.419979886e-01 +1.659239541e-01 -4.127628968e-01
136500000000.000000 +4.300694686e-02 -4.470901951e-01 -8.352898012e-01 -1.776281645e-01 -8.284740306e-01 -2.161845715e-01 +1.620197787e-01 -4.088418886e-01
137000000000.000000 +3.753112427e-02 -4.499482671e-01 -8.333040855e-01 -1.493825877e-01 -8.261084770e-01 -2.020176006e-01 +1.509228029e-01 -4.064616581e-01
137500000000.000000 +2.503854422e-02 -4.603259803e-01 -8.326763794e-01 -1.146074652e-01 -8.291043316e-01 -1.717063569e-01 +1.241825646e-01 -4.317580685e-01
138000000000.000000 +1.394166176e-02 -4.607597615e-01 -8.394293375e-01 -8.303234732e-02 -8.345349686e-01 -1.503132228e-01 +1.171299433e-01 -4.256774465e-01
138500000000.000000 -1.196301665e-02 -4.545948579e-01 -8.466678843e-01 -4.807614268e-02 -8.410777506e-01 -1.133646869e-01 +9.849189255e-02 -4.319996034e-01
139000000000.000000 +2.685511355e-02 -4.819641028e-01 -8.418769480e-01 -6.272809654e-03 -8.406925243e-01 -8.856361434e-02 +8.835518592e-02 -4.254106629e-01
139500000000.000000 +1.136839141e-02 -4.390950156e-01 -8.400569256e-01 -1.278502884e-02 -8.313478831e-01 -6.114176746e-02 +6.113329121e-02 -4.443875676e-01
140000000000.000000 -6.436929608e-02 -4.739993967e-01 -8.416418645e-01 +8.191065341e-03 -8.345383616e-01 -3.344059738e-02 +5.713182035e-02 -4.515560152e-01
140500000000.000000 -5.818306027e-02 -4.295501238e-01 -8.401450687e-01 +5.310614394e-02 -8.396791442e-01 -2.881987663e-03 +4.823396811e-02 -4.512991130e-01
141000000000.000000 -9.195392104e-02 -4.444921322e-01 -8.362166481e-01 +8.042722500e-02 -8.444182994e-01 +2.845026583e-02 +3.976231856e-02 -4.421981276e-01
141500000000.000000 -9.719696843e-02 -4.370599771e-01 -8.291713688e-01 +9.801601658e-02 -8.330259308e-01 +5.341307321e-02 +2.450594635e-02 -4.346926167e-01
142000000000.000000 -1.408156995e-01 -4.660401694e-01 -8.333900515e-01 +1.356205222e-01 -8.339915379e-01 +7.995992285e-02 +3.193276787e-02 -4.393134844e-01
142500000000.000000 -1.220099049e-01 -4.451483999e-01 -8.280601021e-01 +1.573807159e-01 -8.337789362e-01 +1.176065556e-01 -3.368734398e-03 -4.475672261e-01
143000000000.000000 -1.260183309e-01 -4.499264701e-01 -8.155526021e-01 +1.864410917e-01 -8.335031329e-01 +1.379792916e-01 -1.476477396e-02 -4.437190116e-01
143500000000.000000 -1.321536598e-01 -4.343985390e-01 -8.083866171e-01 +2.128950193e-01 -8.202152738e-01 +1.654266186e-01 -3.756710082e-02 -4.363529831e-01
144000000000.000000 -1.429251771e-01 -3.993956119e-01 -8.049151049e-01 +2.488403972e-01 -8.255675599e-01 +1.865677566e-01 -4.700747235e-02 -4.385515681e-01
144500000000.000000 -1.725237139e-01 -4.099205276e-01 -7.989959161e-01 +2.805142671e-01 -8.096153583e-01 +2.107633333e-01 -6.936335099e-02 -4.335387008e-01
145000000000.000000 -1.725183504e-01 -4.235873437e-01 -7.913971171e-01 +2.900426606e-01 -8.148871944e-01 +2.433773034e-01 -7.237886512e-02 -4.148723116e-01
145500000000.000000 -1.952667847e-01 -3.861287962e-01 -7.862426345e-01 +3.196845232e-01 -8.028690879e-01 +2.576632084e-01 -9.062972466e-02 -4.023631133e-01
146000000000.000000 -1.864990883e-01 -3.858191924e-01 -7.780296115e-01 +3.509788481e-01 -8.021973099e-01 +3.003824060e-01 -1.044207346e-01 -3.854298198e-01
146500000000.000000 -2.066197724e-01 -3.528092917e-01 -7.761607907e-01 +3.548055111e-01 -8.037524458e-01 +3.086985728e-01 -9.020036507e-02 -3.893658840e-01
147000000000.000000 -2.065902651e-01 -3.723510455e-01 -7.478620532e-01 +4.119274160e-01 -7.875830448e-01 +3.509777674e-01 -1.330488474e-01 -3.748353021e-01
147500000000.000000 -2.244998127e-01 -3.384383021e-01 -7.426041377e-01 +4.439618619e-01 -7.920063414e-01 +3.776750022e-01 -1.275619741e-01 -3.779990104e-01
148000000000.000000 -2.225886998e-01 -3.354773340e-01 -7.423023112e-01 +4.417970162e-01 -7.717721850e-01 +3.894582363e-01 -1.394116362e-01 -3.624817122e-01
148500000000.000000 -2.597408871e-01 -2.885137522e-01 -7.119457829e-01 +4.867751405e-01 -7.636466723e-01 +4.209145323e-01 -1.433626264e-01 -3.623011067e-01
149000000000.000000 -2.605803660e-01 -3.151275571e-01 -7.156592059e-01 +4.774868994e-01 -7.513787368e-01 +4.374939956e-01 -1.499272490e-01 -3.464966924e-01
149500000000.000000 -2.649022485e-01 -2.975160387e-01 -6.938279175e-01 +5.220498249e-01 -7.350323074e-01 +4.688077076e-01 -1.538384882e-01 -3.538255673e-01
150000000000.000000 -2.780534062e-01 -2.692566161e-01 -6.767106531e-01 +5.436450314e-01 -7.314501827e-01 +4.833462486e-01 -1.679468691e-01 -3.443038687e-01
