!Keysight Technologies,E5080B,MY59500459,A.17.35.16
!Date: Friday, August 22, 2025 11:18:45
!Correction: S11(C  2-Port  ) 
!S21(C  2-Port  ) 
!S12(C  2-Port  ) 
!S22(C  2-Port  ) 
!S2P File: Measurements: S11, S21, S12, S22:
# Hz S  dB   R 50
10000000 -0.0044409367 -0.98691964 -121.23131 -38.07246 -128.03308 -59.924728 -0.0017139893 -0.97196943
18995000 -0.0023588522 -1.8479546 -123.06762 -16.237661 -113.48861 34.220905 0.0012708151 -1.8361354
27990000 -0.0010982216 -2.7194026 -118.99936 42.700802 -111.9777 -85.503441 0.0026628496 -2.6956511
36985000 -0.0018429542 -3.5901704 -114.99931 -65.622955 -112.78805 14.66018 0.003636491 -3.5557659
45980000 -0.0019851308 -4.4623723 -115.45118 129.77979 -114.47517 99.184738 0.0020978099 -4.4171901
54975000 -0.0021643473 -5.3448596 -112.6146 20.010237 -116.59635 6.3911338 -0.00085250859 -5.2878208
63970000 -0.0022112245 -6.2191315 -114.14784 -115.64192 -123.43541 -147.26886 -0.0031351456 -6.15623
72965000 -0.0031330732 -7.0941706 -122.38078 -54.317154 -119.73808 -163.84009 -0.0026748441 -7.0216575
81960000 -0.0036623373 -7.9650416 -113.77089 -99.65963 -115.2349 33.285126 -0.0011342124 -7.8924732
90955000 -0.0034263236 -8.8317938 -112.60074 90.863792 -113.73389 -141.99886 0.00082257815 -8.7646818
99950000 -0.003915464 -9.6973753 -114.28211 130.11172 -114.81074 160.67628 0.00029509002 -9.634798
108945000 -0.0041105654 -10.558172 -124.19341 -29.304575 -111.98017 -78.541336 -0.00075981964 -10.495965
117940000 -0.0040038158 -11.429173 -123.44739 -56.919258 -124.06169 -26.836872 -0.0032058659 -11.352518
126935000 -0.0038706411 -12.301065 -117.92056 74.842827 -112.83549 23.691515 -0.0035138882 -12.208577
135930000 -0.0042735455 -13.174179 -114.33287 44.844852 -111.03455 114.8178 -0.0037343616 -13.065248
144925000 -0.0050133807 -14.048079 -114.7617 33.215645 -118.35757 -1.6411541 -0.0033877234 -13.92166
153920000 -0.0062476695 -14.921482 -107.66975 86.09758 -114.47186 41.164474 -0.0022026778 -14.781911
162915000 -0.0060566193 -15.787344 -114.29761 91.18644 -115.67205 96.469147 -0.0010552403 -15.647057
171910000 -0.0049768393 -16.654625 -112.5536 32.647701 -112.9689 111.54431 -0.0015112269 -16.49992
180905000 -0.0053433022 -17.520662 -120.65689 101.25246 -133.64838 55.975224 -0.0033843555 -17.350986
189900000 -0.0058666146 -18.386539 -114.58222 66.576317 -115.05061 78.71508 -0.0055024405 -18.209675
198895000 -0.0071714125 -19.266966 -110.06736 75.171967 -114.42948 60.571976 -0.0054651177 -19.081112
207890000 -0.0068670199 -20.140718 -127.73386 153.35912 -116.42672 -11.369063 -0.0058375834 -19.959738
216885000 -0.0073513617 -21.02063 -112.65411 77.880798 -112.53596 36.93903 -0.0059386757 -20.848648
225880000 -0.0078795841 -21.887094 -115.73597 130.74612 -126.60999 -143.07173 -0.0047726287 -21.735338
234875000 -0.0077066151 -22.740164 -116.55804 4.8959937 -115.55538 50.69006 -0.004560913 -22.599579
243870000 -0.0072056386 -23.598043 -109.96173 36.18153 -116.78041 48.915279 -0.004880175 -23.439247
252865000 -0.0077424012 -24.456865 -113.88181 109.59113 -109.39503 118.71236 -0.0068309815 -24.2806
261860000 -0.0088620372 -25.318565 -111.65707 68.523827 -110.60948 68.599457 -0.0080572292 -25.125408
270855000 -0.0097723259 -26.182669 -115.51837 49.76091 -112.07246 82.430458 -0.0082494048 -25.99428
279850000 -0.010376611 -27.053974 -111.21313 96.791115 -119.11109 52.000694 -0.0077963406 -26.877373
288845000 -0.0093279229 -27.92812 -119.33775 73.287743 -112.45045 25.257866 -0.0075707338 -27.76874
297840000 -0.0096413093 -28.802977 -110.41572 59.044827 -113.68265 76.100586 -0.0078256447 -28.652924
306835000 -0.010348587 -29.676373 -108.46547 64.992554 -110.3644 81.39196 -0.0078326464 -29.508989
315830000 -0.011194824 -30.561293 -115.52448 132.81511 -111.16154 34.226227 -0.0094021168 -30.359997
324825000 -0.011476422 -31.441294 -108.70551 73.05471 -109.71649 49.949486 -0.010614819 -31.209591
333820000 -0.012107939 -32.324627 -108.69875 59.737858 -111.12735 117.05247 -0.011404788 -32.078362
342815000 -0.012433987 -33.194283 -110.4457 62.603569 -111.56001 50.150871 -0.012045381 -32.970074
351810000 -0.011746356 -34.060108 -112.27503 107.08022 -110.74461 37.251797 -0.012055244 -33.878738
360805000 -0.011922342 -34.908875 -110.74718 30.02573 -115.56231 41.574196 -0.01201475 -34.771538
369800000 -0.013443696 -35.761261 -111.08913 34.396721 -113.40649 39.997013 -0.012297438 -35.633801
378795000 -0.014223012 -36.614853 -109.62772 55.535511 -107.3538 33.063732 -0.012138311 -36.478031
387790000 -0.015164559 -37.477715 -122.44427 148.63181 -116.34029 72.549171 -0.012659327 -37.316631
396785000 -0.016282732 -38.353607 -111.08347 31.104757 -107.52424 39.61639 -0.013747511 -38.171829
405780000 -0.017221346 -39.237286 -116.92532 34.321369 -111.12233 74.294502 -0.014778046 -39.051933
414775000 -0.016680812 -40.125671 -111.04548 9.1434517 -112.85439 51.272739 -0.015279637 -39.970673
423770000 -0.016781118 -41.005756 -111.9513 99.899048 -110.16542 39.23988 -0.01570984 -40.874569
432765000 -0.018355386 -41.895432 -112.94002 13.201699 -108.66419 44.583286 -0.017127268 -41.750694
441760000 -0.018840233 -42.771259 -118.58444 72.371521 -107.68109 25.343775 -0.016241679 -42.59861
450755000 -0.020563755 -43.639908 -106.52672 45.2034 -105.38059 43.659737 -0.016541533 -43.414211
459750000 -0.021719741 -44.506088 -109.85947 -2.2376864 -114.79675 62.250084 -0.017149359 -44.241306
468745000 -0.021508498 -45.371628 -108.76353 66.845726 -107.90922 65.957184 -0.019392475 -45.09671
477740000 -0.020987719 -46.227318 -110.23435 88.373322 -107.15411 54.155163 -0.01977394 -45.995342
486735000 -0.020527864 -47.082211 -105.7804 42.276131 -107.31332 47.98539 -0.020874312 -46.90852
495730000 -0.022992618 -47.944347 -106.23034 59.005978 -109.12761 84.214897 -0.021957532 -47.815269
504725000 -0.024417112 -48.819984 -109.29189 83.439751 -109.59721 60.076595 -0.021448145 -48.686916
513720000 -0.026330879 -49.699604 -105.03221 81.641106 -106.87014 23.066227 -0.021333685 -49.522186
522715000 -0.027790336 -50.580379 -107.50914 65.867271 -104.57255 27.798841 -0.022195335 -50.342209
531710000 -0.027752299 -51.468571 -104.64443 43.325371 -105.71579 49.038322 -0.022883322 -51.190117
540705000 -0.026171496 -52.350094 -108.13606 18.21896 -104.85247 44.400517 -0.023848092 -52.073879
549700000 -0.027603807 -53.221306 -106.64252 43.925838 -104.39022 36.54995 -0.026744729 -52.981159
558695000 -0.029161416 -54.098339 -104.10162 40.309479 -108.73395 19.842817 -0.027704364 -53.891853
567690000 -0.029571105 -54.968227 -104.9145 36.525524 -112.78132 19.479355 -0.026833285 -54.772949
576685000 -0.032324992 -55.827442 -104.86971 44.432777 -106.66165 20.880003 -0.027454536 -55.594925
585680000 -0.033477854 -56.686977 -106.08781 45.456398 -106.62462 28.532906 -0.027577756 -56.38615
594675000 -0.033726204 -57.55286 -107.00752 50.678268 -104.82829 39.278645 -0.028706165 -57.197628
603670000 -0.032510422 -58.417763 -104.80362 17.390938 -105.70448 46.445919 -0.03078163 -58.049191
612665000 -0.034670945 -59.27887 -103.91364 41.740334 -102.38943 40.302696 -0.032581359 -58.947906
621660000 -0.036582187 -60.160416 -103.101 43.20462 -103.697 28.722359 -0.034826465 -59.879532
630655000 -0.037147917 -61.049309 -106.54193 63.819805 -103.74936 41.621021 -0.035803024 -60.792542
639650000 -0.039571971 -61.929127 -105.08372 7.7391534 -105.22646 15.644217 -0.035625026 -61.658768
648645000 -0.039995182 -62.807709 -103.64973 12.392589 -103.90857 21.038345 -0.03546739 -62.469196
657640000 -0.038804024 -63.679874 -105.24242 28.841946 -104.5841 41.852283 -0.035157613 -63.27953
666635000 -0.038252179 -64.527405 -104.52171 22.33165 -104.51242 22.511114 -0.036031406 -64.097923
675630000 -0.040738516 -65.380661 -104.7215 41.827099 -104.085 17.496901 -0.038833015 -64.974823
684625000 -0.042971369 -66.247673 -104.112 16.878799 -102.46526 36.723461 -0.041176476 -65.904541
693620000 -0.044155564 -67.121376 -101.90961 39.572277 -104.36288 29.550356 -0.042391546 -66.835968
702615000 -0.04634596 -67.987419 -102.12473 10.054209 -102.54502 27.119946 -0.042459249 -67.716881
711610000 -0.047294233 -68.865028 -102.26424 12.090021 -101.8449 29.644104 -0.04183428 -68.546005
720605000 -0.045073543 -69.740532 -106.36254 25.098305 -103.73346 -2.2540894 -0.041134402 -69.328087
729600000 -0.045842074 -70.586304 -103.19273 6.511672 -104.05988 3.5753741 -0.043214772 -70.109512
738595000 -0.048254233 -71.455345 -99.250572 -2.1099691 -101.75916 25.705055 -0.046170142 -70.943886
747590000 -0.050384633 -72.325516 -99.789192 26.754856 -106.18709 34.690613 -0.049854096 -71.866676
756585000 -0.052125961 -73.204803 -102.25391 19.899454 -101.96186 23.454281 -0.052747436 -72.819901
765580000 -0.05306004 -74.077415 -101.03433 8.5723848 -103.68118 6.775023 -0.053621631 -73.747368
774575000 -0.05234525 -74.952095 -103.9566 19.155367 -101.98533 7.9265933 -0.051581327 -74.618736
783570000 -0.051168773 -75.81115 -101.99528 18.478584 -102.93963 12.854505 -0.049417615 -75.408485
792565000 -0.052872684 -76.647995 -103.3147 8.0776119 -101.12777 11.154691 -0.050080862 -76.168953
801560000 -0.055021863 -77.503677 -101.9332 10.013191 -100.19067 7.6897821 -0.053592805 -76.982407
810555000 -0.058435481 -78.370766 -99.634735 11.252978 -102.31465 3.1608694 -0.05672152 -77.875137
819550000 -0.059763256 -79.238953 -102.43653 9.4631233 -98.54525 1.4191041 -0.059185389 -78.818245
828545000 -0.061013471 -80.120361 -99.148323 0.62381262 -100.86032 1.5693693 -0.060887199 -79.774483
837540000 -0.059552256 -80.998505 -101.34859 0.072642848 -99.357338 0.68988973 -0.059581913 -80.676552
846535000 -0.059486385 -81.857903 -100.12492 -2.5478728 -98.81076 -9.1789684 -0.056629468 -81.483208
855530000 -0.061662737 -82.696144 -101.49294 -6.0839696 -100.26586 -0.86858517 -0.059420254 -82.231781
864525000 -0.064328812 -83.565521 -99.972565 1.3275706 -99.818832 -11.92975 -0.061523844 -83.000381
873520000 -0.065561943 -84.432152 -97.798767 -8.0933676 -98.972366 -3.9319582 -0.064980939 -83.844978
882515000 -0.067494459 -85.288834 -98.625046 -2.5153537 -100.74387 3.735343 -0.068734542 -84.762505
891510000 -0.068651438 -86.159279 -99.513023 -18.82287 -98.801407 -9.3896255 -0.070966579 -85.72686
900505000 -0.066424794 -87.025673 -100.82928 -14.976677 -99.695534 -12.256745 -0.070974208 -86.675026
909500000 -0.066441089 -87.86528 -99.37606 -2.3634028 -100.39053 -13.514467 -0.069168493 -87.522957
918495000 -0.068799764 -88.713348 -98.333687 -6.0959616 -99.084908 -18.237911 -0.070165962 -88.286835
927490000 -0.072714597 -89.5849 -99.073715 -11.982135 -100.39402 -0.60477626 -0.070656888 -89.045242
936485000 -0.073906936 -90.444923 -97.795212 -10.512375 -100.22818 -15.209767 -0.072987579 -89.847038
945480000 -0.075969085 -91.313896 -98.764832 -9.0318327 -100.6482 -13.08356 -0.076829523 -90.731865
954475000 -0.076886699 -92.184029 -97.560486 -8.9913931 -97.39621 -20.704145 -0.080908522 -91.697525
963470000 -0.074442789 -93.051331 -97.982391 -21.351295 -100.16837 -23.303013 -0.08147452 -92.674545
972465000 -0.075044811 -93.8908 -98.609131 -15.770485 -97.032143 -15.618037 -0.081233978 -93.562996
981460000 -0.078933917 -94.748779 -99.251183 -15.200368 -97.556053 -30.887133 -0.080322824 -94.362999
990455000 -0.081166983 -95.615768 -98.451942 -26.706778 -97.972984 -25.507141 -0.079533935 -95.115143
999450000 -0.083311483 -96.473793 -97.933411 -33.599426 -97.107941 -31.867512 -0.080275364 -95.858513
1008445000 -0.085278049 -97.324829 -97.626953 -41.432751 -98.772263 -33.033772 -0.084798396 -96.68338
1017440000 -0.085055508 -98.191109 -98.077904 -36.420433 -97.937408 -21.909361 -0.088780269 -97.624268
1026435000 -0.083028354 -99.049202 -98.198166 -31.938774 -98.848412 -42.469696 -0.09125632 -98.591141
1035430000 -0.084006049 -99.887245 -98.709053 -36.46315 -99.162933 -27.077091 -0.092876866 -99.522469
1044425000 -0.087274291 -100.74282 -97.825958 -32.691002 -100.5453 -34.192081 -0.0937232 -100.38201
1053420000 -0.088667192 -101.61581 -97.969658 -24.799726 -98.326851 -36.093323 -0.092411183 -101.15433
1062415000 -0.09126319 -102.47701 -98.322037 -21.49011 -97.745094 -28.491858 -0.092648119 -101.88714
1071410000 -0.09365496 -103.33014 -98.508751 -27.389294 -96.551796 -27.210913 -0.095864385 -102.66898
1080405000 -0.093586981 -104.20451 -98.16835 -36.460751 -96.993767 -43.744751 -0.099355027 -103.56167
1089400000 -0.091503233 -105.05428 -96.913475 -33.058453 -95.193573 -33.940891 -0.10189674 -104.52822
1098395000 -0.093892224 -105.88486 -96.447502 -38.187248 -97.556351 -34.027836 -0.10505702 -105.48682
1107390000 -0.095944837 -106.7362 -96.705948 -41.051872 -96.635338 -49.100456 -0.10552564 -106.40067
1116385000 -0.098121792 -107.59489 -96.682877 -30.17787 -98.395309 -38.825661 -0.10346904 -107.2106
1125380000 -0.10110763 -108.45114 -95.583275 -46.061329 -97.276688 -36.690948 -0.10237775 -107.93713
1134375000 -0.10317505 -109.30839 -97.113403 -41.376587 -96.750107 -33.011292 -0.10426786 -108.67516
1143370000 -0.10251557 -110.18697 -95.66906 -46.296261 -95.073547 -48.600662 -0.10748982 -109.51243
1152365000 -0.10051734 -111.02791 -95.244774 -37.388802 -95.475479 -38.334709 -0.1115008 -110.43118
1161360000 -0.10284504 -111.86024 -94.897232 -47.566456 -93.997353 -47.378078 -0.11751105 -111.3998
1170355000 -0.10580494 -112.72195 -94.37867 -54.446674 -95.240959 -46.067848 -0.11932793 -112.35502
1179350000 -0.10807496 -113.58393 -94.45446 -59.018005 -94.57373 -48.141541 -0.11775733 -113.22036
1188345000 -0.10992639 -114.43212 -94.732964 -59.238438 -94.464508 -57.64957 -0.11768313 -113.97348
1197340000 -0.11196906 -115.30021 -94.320099 -53.10965 -94.017845 -59.3843 -0.11710787 -114.69386
1206335000 -0.11070197 -116.16747 -95.662605 -57.192165 -95.906586 -59.363129 -0.11777728 -115.48215
1215330000 -0.11046936 -117.01264 -94.715164 -58.398083 -94.65522 -52.756298 -0.12234436 -116.34554
1224325000 -0.11268019 -117.83533 -95.198456 -52.513218 -93.854012 -64.006241 -0.12906106 -117.30534
1233320000 -0.11588581 -118.69006 -94.601517 -62.286694 -94.513519 -57.9981 -0.13178085 -118.29066
1242315000 -0.11616524 -119.54207 -94.796982 -56.79493 -94.507927 -66.262047 -0.13230601 -119.21008
1251310000 -0.12006953 -120.39189 -94.389053 -62.4436 -93.958656 -67.359253 -0.13116877 -120.01181
1260305000 -0.12206347 -121.25882 -93.807739 -67.501862 -93.703117 -63.855782 -0.12907679 -120.74133
1269300000 -0.12053712 -122.12849 -93.275322 -68.989784 -92.958809 -74.974968 -0.12795879 -121.47784
1278295000 -0.12055016 -122.96257 -93.355782 -70.450127 -93.948547 -73.180374 -0.13274316 -122.28734
1287290000 -0.12199318 -123.79858 -94.12294 -71.032127 -93.852516 -75.18116 -0.1390312 -123.19507
1296285000 -0.12472907 -124.64627 -93.603355 -82.193542 -93.986458 -77.034286 -0.14416495 -124.18247
1305280000 -0.12747973 -125.49535 -93.687996 -80.794579 -94.659805 -79.434143 -0.14698018 -125.14873
1314275000 -0.13150603 -126.34234 -94.895012 -83.031425 -94.939178 -80.062347 -0.14654347 -126.00586
1323270000 -0.1326679 -127.215 -93.908432 -85.751472 -94.829185 -77.421791 -0.14242993 -126.77472
1332265000 -0.1299817 -128.07582 -94.835121 -79.610031 -94.476379 -79.850471 -0.14069721 -127.48514
1341260000 -0.13049543 -128.90938 -94.950233 -84.18943 -94.714661 -80.197647 -0.14386016 -128.22176
1350255000 -0.133368 -129.74046 -93.947754 -79.903343 -94.620461 -85.852402 -0.15066947 -129.08922
1359250000 -0.13444628 -130.58482 -94.561646 -84.874054 -94.453743 -85.536453 -0.15685821 -130.07205
1368245000 -0.13740857 -131.42996 -95.375809 -78.01004 -93.625443 -80.662422 -0.16143435 -131.06769
1377240000 -0.14138845 -132.27226 -94.324539 -82.655022 -93.108887 -72.377396 -0.16079874 -131.98505
1386235000 -0.14080791 -133.14734 -93.264915 -77.605446 -93.352509 -85.035095 -0.15641648 -132.80576
1395230000 -0.13957274 -134.00513 -93.261642 -83.709267 -92.455376 -75.167694 -0.15322693 -133.51149
1404225000 -0.14059748 -134.83209 -91.928322 -85.351807 -92.93528 -78.885231 -0.15394351 -134.20996
1413220000 -0.14316827 -135.66701 -92.301056 -76.337204 -91.888336 -81.899269 -0.15927725 -135.00243
1422215000 -0.14542846 -136.51947 -91.361343 -86.739868 -90.783875 -82.094063 -0.16758248 -135.93262
1431210000 -0.14820059 -137.35161 -91.300652 -88.809074 -91.300972 -91.230675 -0.17251469 -136.92773
1440205000 -0.15145211 -138.20306 -91.870842 -97.827797 -90.752739 -96.200951 -0.1750112 -137.89838
1449200000 -0.15115082 -139.08189 -90.701492 -96.137138 -90.845032 -100.38271 -0.17167872 -138.77139
1458195000 -0.1492236 -139.91905 -91.218948 -103.05861 -91.190536 -102.02746 -0.1672992 -139.50748
1467190000 -0.15092865 -140.74625 -91.365349 -103.66199 -91.428833 -97.074059 -0.16627298 -140.18655
1476185000 -0.15331033 -141.5889 -90.758614 -103.59666 -91.685822 -107.83099 -0.17130926 -140.92772
1485180000 -0.15525198 -142.43237 -91.994637 -107.66509 -91.588844 -100.81785 -0.17790772 -141.80122
1494175000 -0.15870774 -143.27327 -91.053558 -103.71368 -92.477013 -109.22692 -0.18491815 -142.76598
1503170000 -0.15992364 -144.13022 -91.41993 -105.49323 -91.232185 -105.17194 -0.18946908 -143.77177
1512165000 -0.15911426 -144.9903 -91.458374 -107.42252 -91.011696 -102.70533 -0.18608901 -144.70766
1521160000 -0.15836515 -145.82831 -90.722046 -109.94831 -90.387245 -110.64066 -0.18137698 -145.49707
1530155000 -0.1601976 -146.65056 -90.625847 -115.48973 -90.874474 -113.2646 -0.17959034 -146.17883
1539150000 -0.16307403 -147.49956 -90.070045 -121.98053 -90.526031 -116.23248 -0.18223129 -146.88974
1548145000 -0.16569905 -148.34685 -90.46965 -122.87843 -91.010132 -117.28331 -0.18753262 -147.69002
1557140000 -0.16704604 -149.18178 -90.784615 -125.21452 -90.909958 -123.19253 -0.19517346 -148.60367
1566135000 -0.16861035 -150.03902 -91.067245 -127.00139 -91.195557 -125.85419 -0.20098023 -149.61777
1575130000 -0.16699386 -150.8902 -90.967056 -126.5808 -91.386574 -125.15524 -0.20005418 -150.59396
1584125000 -0.16739981 -151.72435 -91.415428 -125.22807 -91.780472 -126.98451 -0.19619732 -151.43562
1593120000 -0.17076428 -152.54909 -91.17028 -131.12428 -91.621513 -124.09147 -0.19267426 -152.15428
1602115000 -0.17163563 -153.39719 -91.240501 -131.97897 -90.747612 -130.69489 -0.19272189 -152.8485
1611110000 -0.17329912 -154.23785 -90.792076 -123.97619 -91.33577 -125.19788 -0.19785018 -153.59126
1620105000 -0.17589797 -155.06972 -90.911026 -125.94122 -91.422417 -124.7159 -0.20597714 -154.45038
1629100000 -0.1757082 -155.9297 -90.809044 -128.22501 -90.934181 -127.43526 -0.21238197 -155.43942
1638095000 -0.17334707 -156.7757 -90.217171 -133.68048 -90.693024 -130.28329 -0.21309532 -156.4312
1647090000 -0.17430328 -157.59439 -90.267548 -132.89442 -89.989014 -133.36156 -0.21257661 -157.33337
1656085000 -0.17859007 -158.42343 -89.90213 -138.96552 -90.044548 -137.01599 -0.20883112 -158.10918
1665080000 -0.18000044 -159.26633 -90.446701 -135.75383 -90.489578 -137.72385 -0.2061886 -158.81752
1674075000 -0.18287517 -160.10321 -90.122299 -135.54251 -89.388168 -139.23676 -0.20888054 -159.52228
1683070000 -0.18459861 -160.94981 -89.62822 -141.1136 -89.600189 -141.89734 -0.21469808 -160.32127
1692065000 -0.1835278 -161.8183 -89.853905 -144.47403 -89.673759 -145.43277 -0.22092377 -161.2561
1701060000 -0.18190278 -162.65401 -89.758278 -152.00114 -89.680542 -150.4971 -0.22463228 -162.23759
1710055000 -0.1830658 -163.46458 -90.081093 -157.34273 -90.23436 -157.1752 -0.22574954 -163.17561
1719050000 -0.18615413 -164.29926 -90.035568 -155.01001 -90.167381 -155.1633 -0.22387479 -164.0202
1728045000 -0.1875391 -165.14056 -90.465446 -156.91618 -89.737541 -153.60704 -0.22004029 -164.76321
1737040000 -0.18871121 -165.96738 -90.390984 -160.6722 -90.861343 -157.8147 -0.22036217 -165.44695
1746035000 -0.1907123 -166.81244 -90.852646 -161.39856 -91.154037 -158.9998 -0.22378649 -166.20169
1755030000 -0.18982062 -167.67104 -91.552071 -159.02739 -90.685066 -159.23032 -0.22864819 -167.07292
1764025000 -0.18870553 -168.50798 -91.182106 -153.73518 -91.522743 -155.83835 -0.23555167 -168.01808
1773020000 -0.19007862 -169.32173 -90.809982 -159.38507 -90.456039 -157.64026 -0.23910341 -168.97501
1782015000 -0.19272865 -170.15186 -90.826515 -163.01367 -90.931061 -160.05705 -0.23791489 -169.88118
1791010000 -0.19531913 -170.98364 -91.478508 -161.93199 -91.500244 -163.53462 -0.23375545 -170.67239
1800005000 -0.19684003 -171.80521 -91.999222 -167.33295 -91.356956 -161.98587 -0.2325045 -171.36848
1809000000 -0.19789164 -172.65358 -91.233772 -165.05289 -90.424194 -161.60193 -0.23287974 -172.08893
1817995000 -0.19615074 -173.5014 -91.31189 -166.18924 -90.95652 -164.49565 -0.2366641 -172.89284
1826990000 -0.19634195 -174.33768 -90.97374 -166.4722 -91.558586 -167.15097 -0.24401104 -173.79492
1835985000 -0.1978678 -175.14857 -91.087959 -162.07619 -90.039055 -165.77034 -0.25057974 -174.75101
1844980000 -0.20032634 -175.98497 -90.789642 -166.06076 -90.941048 -168.79454 -0.25177366 -175.70135
1853975000 -0.20194471 -176.81223 -91.449905 -172.60931 -91.283913 -171.49474 -0.2492598 -176.54404
1862970000 -0.20326883 -177.63646 -91.279236 -167.52226 -91.60656 -166.85684 -0.24484436 -177.28207
1871965000 -0.20289232 -178.48248 -91.294266 -170.11267 -91.426826 -174.94312 -0.24243714 -177.9837
1880960000 -0.20205997 -179.33542 -91.744217 -173.02805 -91.131821 -171.54858 -0.24512838 -178.73909
1889955000 -0.20171802 179.84859 -91.455177 -174.02213 -93.263657 -171.65369 -0.25206116 -179.56938
1898950000 -0.20363668 179.02205 -91.578201 -176.5401 -91.262749 -168.79878 -0.26086915 179.48405
1907945000 -0.20694029 178.19765 -92.438507 -172.59302 -92.144653 -174.5179 -0.26400095 178.52171
1916940000 -0.20763429 177.37363 -92.689476 -176.81502 -92.451782 -172.75163 -0.26307017 177.63086
1925935000 -0.20901555 176.55066 -92.428528 -173.95546 -92.227798 -173.80637 -0.25813985 176.85765
1934930000 -0.2104782 175.70297 -93.151535 -171.87851 -92.810539 -170.16628 -0.25359327 176.13139
1943925000 -0.20820129 174.86159 -93.016296 -173.5618 -93.599548 -168.9514 -0.25297558 175.41438
1952920000 -0.20844518 174.03709 -92.949181 -171.14511 -93.618935 -169.30101 -0.25984424 174.62689
1961915000 -0.21028855 173.21855 -93.427872 -165.78357 -94.023941 -165.70576 -0.26857305 173.7193
1970910000 -0.21164754 172.39429 -92.484024 -167.33832 -92.52002 -160.33369 -0.2743625 172.75342
1979905000 -0.21380091 171.57745 -92.669601 -159.0222 -92.416542 -154.61856 -0.2748619 171.83897
1988900000 -0.21433417 170.75266 -92.008736 -154.78873 -92.98671 -157.27742 -0.27155334 171.01366
1997895000 -0.21503942 169.90834 -91.179321 -156.70451 -91.58149 -153.81522 -0.26475284 170.27391
2006890000 -0.21351404 169.06946 -91.926643 -152.43651 -92.169952 -152.22636 -0.2620835 169.57884
2015885000 -0.21415415 168.25664 -91.444107 -157.8736 -91.404343 -150.36726 -0.26707086 168.8313
2024880000 -0.21544389 167.43083 -91.166878 -155.61133 -91.164642 -154.03967 -0.27522895 167.97455
2033875000 -0.21644805 166.59737 -90.214462 -148.95531 -89.921364 -153.39285 -0.282965 167.02574
2042870000 -0.21789145 165.77672 -89.603371 -153.76262 -89.746887 -153.85876 -0.28621206 166.08514
2051865000 -0.21865253 164.9537 -89.044647 -149.29243 -89.279694 -153.34766 -0.28394789 165.21426
2060860000 -0.21809614 164.11681 -88.605316 -153.15533 -89.276939 -153.2337 -0.2762807 164.44579
2069855000 -0.21684396 163.28886 -87.522469 -153.96509 -87.683098 -151.71356 -0.27141747 163.75316
2078850000 -0.21787159 162.47597 -87.247971 -151.16783 -88.133507 -151.24146 -0.27442673 163.03647
2087845000 -0.22058086 161.64787 -87.524429 -152.96947 -87.464897 -152.27365 -0.28157964 162.21819
2096840000 -0.2216723 160.82132 -85.94043 -157.45471 -85.65593 -154.62605 -0.29030693 161.29568
2105835000 -0.22195889 160.00108 -85.440048 -159.41469 -86.064484 -159.1593 -0.29572639 160.34769
2114830000 -0.22193682 159.17787 -85.122543 -161.58345 -85.098022 -161.15787 -0.29486358 159.4333
2123825000 -0.22057977 158.35081 -85.401161 -167.57083 -84.87059 -167.10414 -0.28819469 158.62724
2132820000 -0.22046049 157.52756 -84.979767 -171.87059 -84.811646 -168.81596 -0.28229064 157.92838
2141815000 -0.22234713 156.71461 -84.601791 -172.51195 -84.894493 -171.91319 -0.28164124 157.23584
2150810000 -0.2239372 155.88612 -84.512054 -178.06644 -84.21936 -175.31984 -0.28733477 156.46207
2159805000 -0.22375786 155.05612 -83.921219 -177.18651 -83.888336 -176.78876 -0.29534012 155.58147
2168800000 -0.22456113 154.24242 -84.17923 178.12392 -83.875366 -179.8403 -0.30263805 154.6438
2177795000 -0.22444937 153.41531 -84.163147 174.0186 -84.129631 175.89795 -0.30330309 153.71257
2186790000 -0.22254521 152.58917 -84.106194 175.40565 -83.601875 174.46661 -0.29851604 152.87392
2195785000 -0.22289997 151.78186 -83.460419 171.45476 -83.620026 176.45103 -0.29325536 152.1416
2204780000 -0.22497877 150.9646 -83.483086 170.73216 -83.435036 171.45442 -0.29037002 151.44807
2213775000 -0.22650027 150.14116 -82.696777 169.0377 -83.005997 169.80598 -0.29293939 150.70624
2222770000 -0.22736187 149.3154 -82.701118 167.13226 -82.681702 166.44608 -0.30053288 149.86635
2231765000 -0.22684145 148.4958 -82.488083 165.42819 -82.492592 163.86269 -0.30798763 148.93668
2240760000 -0.22663391 147.66415 -82.106552 162.6414 -82.215195 161.16386 -0.31180689 147.98665
2249755000 -0.22535746 146.83707 -82.465126 157.34343 -82.346245 156.53372 -0.30896312 147.12018
2258750000 -0.22581445 146.03015 -82.467873 156.43774 -81.959412 154.81259 -0.30373976 146.35739
2267745000 -0.22739652 145.21884 -81.929733 153.51447 -81.880394 153.27754 -0.29855484 145.6665
2276740000 -0.22812243 144.40793 -81.80069 149.97293 -81.610191 148.79932 -0.29800975 144.94994
2285735000 -0.22903211 143.58786 -81.663513 145.82816 -81.822418 146.631 -0.30408373 144.15965
2294730000 -0.22958282 142.7618 -81.72628 143.3593 -82.172081 143.81186 -0.31185749 143.26132
2303725000 -0.22808696 141.92635 -81.651588 142.69757 -81.983078 142.18665 -0.31694168 142.31447
2312720000 -0.22738969 141.10533 -81.537979 138.47488 -81.981094 139.02979 -0.3174549 141.4061
2321715000 -0.22766794 140.2933 -82.30558 134.80951 -82.47998 135.82323 -0.31335384 140.61086
2330710000 -0.22864737 139.48277 -82.366806 134.47855 -82.30114 133.45499 -0.30739218 139.89983
2339705000 -0.22881873 138.67267 -82.448227 133.42349 -82.300598 132.00044 -0.30397213 139.20813
2348700000 -0.22961174 137.85513 -82.352455 132.27557 -82.442841 131.57829 -0.30721632 138.44696
2357695000 -0.22878952 137.03848 -82.718018 130.89468 -82.505852 130.78094 -0.3143436 137.57635
2366690000 -0.2276251 136.20416 -82.911034 132.48491 -82.531776 130.80373 -0.32207081 136.63371
2375685000 -0.22793746 135.38016 -82.625008 131.84413 -82.701668 129.70804 -0.3252387 135.70987
2384680000 -0.22847056 134.55971 -82.562065 129.17476 -82.38649 131.47624 -0.3223429 134.87976
2393675000 -0.22858243 133.75055 -82.132957 129.47386 -82.004501 131.60591 -0.31621301 134.15424
2402670000 -0.2289497 132.93893 -81.577202 127.32088 -81.557343 127.69689 -0.31044871 133.47125
2411665000 -0.2288752 132.13043 -81.522026 125.02863 -81.366882 123.39459 -0.31083855 132.74969
2420660000 -0.22842528 131.31937 -81.509491 123.45664 -81.244995 122.90001 -0.31613061 131.92062
2429655000 -0.22822228 130.48785 -81.30117 118.42962 -81.355743 120.81316 -0.32359549 130.99408
2438650000 -0.22847384 129.66522 -81.242081 116.55475 -81.153748 118.85388 -0.3302637 130.03694
2447645000 -0.22978723 128.84711 -81.20842 115.09956 -81.523064 113.67178 -0.3310045 129.16124
2456640000 -0.22932464 128.02705 -81.205643 112.41971 -81.196899 110.31644 -0.3247731 128.40068
2465635000 -0.22840782 127.22321 -81.041832 110.01012 -81.789841 110.64446 -0.31768325 127.71471
2474630000 -0.22825994 126.41544 -81.456642 109.11238 -81.607765 107.26605 -0.3138839 127.03403
2483625000 -0.22742243 125.60322 -81.372406 106.22689 -81.459511 108.85481 -0.31676987 126.26167
2492620000 -0.22777542 124.77901 -81.655296 104.41643 -81.585098 104.63364 -0.32545435 125.3667
2501615000 -0.22866674 123.954 -81.275116 105.19063 -81.544121 104.58942 -0.33402964 124.41371
2510610000 -0.22938851 123.13296 -81.904533 101.45129 -81.507179 101.46506 -0.3375957 123.49243
2519605000 -0.22924168 122.31406 -81.934586 101.46835 -81.867889 101.92897 -0.3334032 122.67693
2528600000 -0.22794564 121.50304 -81.82209 102.85307 -81.680489 100.51158 -0.32484004 121.97594
2537595000 -0.22656545 120.69928 -81.631966 100.50098 -81.560066 98.414825 -0.31778157 121.32365
2546590000 -0.22598459 119.89629 -81.705589 97.603989 -81.867844 96.245522 -0.31823307 120.60371
2555585000 -0.22649728 119.08366 -81.568512 93.929321 -81.671051 95.068237 -0.32463363 119.75532
2564580000 -0.22729641 118.26469 -81.958122 94.350105 -81.822083 93.326538 -0.33509237 118.79331
2573575000 -0.22848366 117.44183 -81.668999 95.741669 -81.842644 94.400757 -0.34180933 117.83111
2582570000 -0.22839035 116.61981 -81.747681 94.333527 -81.964203 93.672318 -0.3409225 116.95872
2591565000 -0.22709893 115.81049 -81.9701 94.089104 -82.218262 92.42524 -0.33247644 116.22537
2600560000 -0.22560939 115.00137 -81.862457 92.354988 -82.145218 93.006615 -0.32164988 115.58951
2609555000 -0.22395192 114.19159 -82.015602 95.571625 -82.39064 93.672264 -0.31880131 114.94343
2618550000 -0.22505865 113.38346 -81.960838 95.796684 -82.010101 94.344856 -0.32410643 114.15401
2627545000 -0.22597887 112.56132 -81.897903 96.54982 -82.211479 97.529724 -0.33518267 113.22337
2636540000 -0.22688401 111.7449 -81.370468 95.475998 -81.641769 96.797546 -0.34433535 112.23217
2645535000 -0.22625756 110.9281 -80.866364 97.252113 -81.139145 96.369377 -0.3461678 111.29098
2654530000 -0.22485527 110.1143 -80.67643 94.941277 -81.027939 94.313232 -0.33912137 110.50301
2663525000 -0.22248581 109.31161 -80.084305 91.338341 -80.182724 94.342407 -0.32826653 109.86301
2672520000 -0.22223923 108.52293 -79.743446 90.130234 -79.692848 92.055122 -0.32114312 109.26595
2681515000 -0.22314823 107.70559 -79.588585 85.979538 -79.518082 87.395172 -0.32420099 108.55791
2690510000 -0.22480975 106.89212 -79.392906 83.747604 -79.507286 84.294548 -0.33395556 107.68208
2699505000 -0.22552051 106.07573 -79.337334 81.584183 -79.358063 80.085678 -0.34519711 106.68108
2708500000 -0.22457449 105.25347 -79.265335 77.783966 -79.320023 78.7332 -0.35032076 105.67091
2717495000 -0.22246836 104.43269 -79.303406 77.036362 -79.483444 77.463715 -0.34628528 104.79926
2726490000 -0.22026904 103.62706 -79.053947 73.915482 -79.114166 75.07312 -0.33510214 104.12402
2735485000 -0.21928714 102.83062 -79.189056 71.472519 -79.352081 70.647545 -0.32526436 103.54997
2744480000 -0.22065713 102.02026 -79.141418 69.944855 -79.399933 71.031799 -0.32363677 102.91775
2753475000 -0.22217739 101.20189 -79.175865 67.898567 -79.128853 69.574303 -0.33123499 102.12042
2762470000 -0.22375159 100.38696 -79.309151 65.135948 -79.209122 65.553749 -0.3433519 101.15112
2771465000 -0.22273266 99.558517 -79.062843 62.959202 -79.3815 63.408451 -0.35322347 100.09593
2780460000 -0.21974212 98.738571 -79.150429 63.283642 -79.229675 61.982334 -0.35195783 99.133804
2789455000 -0.21632645 97.9384 -79.241653 58.453899 -79.485924 57.232456 -0.34210679 98.38752
2798450000 -0.21567023 97.145416 -79.454788 55.702091 -79.681129 56.653324 -0.3297551 97.819199
2807445000 -0.21797937 96.329056 -79.759483 55.924919 -80.131004 55.590794 -0.32471171 97.250748
2816440000 -0.21963102 95.518646 -80.263214 54.943436 -80.318634 57.448277 -0.32724342 96.561745
2825435000 -0.21974729 94.705887 -80.330727 55.728954 -80.34713 56.212299 -0.33964926 95.652542
2834430000 -0.21879028 93.887413 -80.281113 55.334732 -80.623596 56.32645 -0.35129204 94.582794
2843425000 -0.21604539 93.069054 -80.352852 57.847775 -80.329079 59.345943 -0.3544538 93.543045
2852420000 -0.21286668 92.268852 -80.403435 57.061413 -79.978722 58.572575 -0.34875244 92.692207
2861415000 -0.21371064 91.474266 -80.191963 57.155704 -80.235954 58.812096 -0.33635616 92.055511
2870410000 -0.21610035 90.656914 -79.891136 58.322132 -79.841316 57.843376 -0.32655349 91.539413
2879405000 -0.21620074 89.845337 -79.78492 57.082844 -79.834953 58.499805 -0.32428691 90.955811
2888400000 -0.2171403 89.037872 -79.549995 57.546371 -79.563911 58.30798 -0.33382639 90.154709
2897395000 -0.21575728 88.211411 -79.206367 57.238243 -79.149437 57.793224 -0.34659758 89.120102
2906390000 -0.2123075 87.397606 -78.784531 57.62822 -78.816902 56.064545 -0.35535464 88.018234
2915385000 -0.21162009 86.601379 -78.655914 54.440132 -78.607216 53.49511 -0.3549549 87.057663
2924380000 -0.21170652 85.788246 -78.347961 52.701015 -78.162231 51.299263 -0.34529576 86.303665
2933375000 -0.21256982 84.967361 -78.10453 51.078205 -78.091789 52.138016 -0.33176526 85.758141
2942370000 -0.21359915 84.158203 -77.695854 48.535278 -77.815697 49.615177 -0.32384425 85.255997
2951365000 -0.21322311 83.350029 -77.687309 43.986465 -77.586037 45.44899 -0.32695791 84.581474
2960360000 -0.21098444 82.530678 -77.573402 43.491047 -77.601082 43.038738 -0.33892992 83.653847
2969355000 -0.20780264 81.729546 -77.293159 39.540428 -77.511894 40.364578 -0.35200667 82.568367
2978350000 -0.20567831 80.934593 -77.498985 37.388226 -77.690491 37.630268 -0.35774997 81.499077
2987345000 -0.20734538 80.128075 -77.558975 35.750954 -77.6856 36.451729 -0.35298312 80.615555
2996340000 -0.20979407 79.314003 -77.803177 34.066547 -77.582382 34.592812 -0.33806324 79.992752
3005335000 -0.21053064 78.493767 -77.720833 34.001205 -77.649498 33.387253 -0.32615528 79.525673
3014330000 -0.2102122 77.678375 -77.808105 31.442545 -77.753998 31.801044 -0.32206497 78.970299
3023325000 -0.20798947 76.846321 -77.589813 31.020216 -77.753319 30.429415 -0.33039638 78.178192
3032320000 -0.20374301 76.041985 -77.391441 28.149641 -77.723785 28.283533 -0.3453249 77.146576
3041315000 -0.20320019 75.256165 -77.619308 26.830582 -77.462891 27.417664 -0.35834506 76.01297
3050310000 -0.20524217 74.43885 -77.54512 23.802982 -77.707092 24.760313 -0.35965896 74.980766
3059305000 -0.20660311 73.61618 -77.766579 23.24225 -77.728401 23.511421 -0.34765917 74.229836
3068300000 -0.206965 72.811539 -77.690002 22.775969 -77.844154 22.388044 -0.33045113 73.71299
3077295000 -0.2057668 72.001259 -77.864685 22.236906 -77.75692 22.720318 -0.31945547 73.235458
3086290000 -0.20249145 71.172928 -77.405792 21.158594 -77.495201 21.40979 -0.32062247 72.607925
3095285000 -0.19899961 70.385109 -77.677551 17.661171 -77.532509 19.513123 -0.33553866 71.723137
3104280000 -0.19915679 69.586205 -77.672707 17.928699 -77.613075 19.411554 -0.35360423 70.599182
3113275000 -0.20107432 68.764381 -77.480316 16.199066 -77.620445 16.100258 -0.36211631 69.461487
3122270000 -0.20181184 67.941261 -77.717392 15.952691 -77.828491 16.892509 -0.35511726 68.552567
3131265000 -0.20250745 67.135818 -77.64492 16.568703 -77.540977 16.723261 -0.33723059 67.938469
3140260000 -0.20089835 66.315117 -77.492264 16.395304 -77.406837 16.39522 -0.31874701 67.47731
3149255000 -0.19692832 65.492882 -77.218857 13.631841 -77.360672 14.393049 -0.31337526 66.978546
3158250000 -0.19492897 64.714203 -77.272224 12.861709 -77.190872 12.535466 -0.32270148 66.248962
3167245000 -0.19612446 63.915859 -77.043808 11.056083 -77.031647 13.198534 -0.34454384 65.200089
3176240000 -0.19833003 63.088219 -76.762352 9.9902773 -76.705872 10.42721 -0.36110124 64.006119
3185235000 -0.19935517 62.261261 -76.804039 7.7774706 -76.735855 7.5388417 -0.36141068 62.943821
3194230000 -0.19880991 61.451958 -76.992195 6.0985413 -77.038452 7.1502633 -0.34547794 62.169586
3203225000 -0.19657974 60.627548 -77.181992 6.1041341 -77.151505 6.8564329 -0.32277536 61.657581
3212220000 -0.19136637 59.819324 -77.069351 5.5161328 -76.937897 5.4617209 -0.30679235 61.260685
3221215000 -0.19008699 59.049282 -76.853241 4.2731209 -76.885475 6.0603132 -0.3113288 60.700665
3230210000 -0.19193099 58.241959 -76.822708 4.367887 -76.847694 3.6636918 -0.33172253 59.795029
3239205000 -0.19423376 57.418629 -76.701645 2.4312518 -76.492561 3.6163116 -0.35621887 58.626259
3248200000 -0.19412576 56.604633 -76.378105 0.96508855 -76.377007 2.5145302 -0.36621496 57.453598
3257195000 -0.19414687 55.790569 -76.428024 -0.85061926 -76.314575 -0.42658117 -0.35576567 56.500771
3266190000 -0.19050783 54.957115 -76.264908 -1.2084432 -76.21743 -2.0938494 -0.32995981 55.869083
3275185000 -0.18537387 54.159386 -76.031929 -3.7140708 -76.080193 -3.1420162 -0.30852816 55.497379
3284180000 -0.18447031 53.383587 -75.978508 -7.3304067 -75.98632 -6.743566 -0.30353934 55.076698
3293175000 -0.18732478 52.579067 -75.961288 -9.3971157 -75.834717 -8.9639587 -0.32014036 54.330647
3302170000 -0.18981792 51.755596 -76.247383 -11.357568 -76.036659 -12.252222 -0.34664103 53.240284
3311165000 -0.19154871 50.934055 -76.172089 -11.225633 -76.100555 -12.480878 -0.36388704 51.982944
3320160000 -0.19161525 50.10519 -76.19873 -15.063975 -76.174141 -15.255269 -0.36183324 50.829514
3329155000 -0.18795969 49.255707 -76.375175 -16.669575 -76.374878 -17.117912 -0.33909059 50.016937
3338150000 -0.18099131 48.452221 -76.240593 -17.597013 -76.410744 -17.955446 -0.31223077 49.571259
3347145000 -0.18102424 47.675663 -76.390144 -18.323503 -76.682266 -18.570417 -0.29785559 49.234985
3356140000 -0.18330529 46.865055 -76.543037 -19.527134 -76.701653 -19.431608 -0.3047404 48.69706
3365135000 -0.18536279 46.049294 -76.759674 -17.58707 -76.985168 -19.629368 -0.32833967 47.831451
3374130000 -0.18737397 45.243069 -76.472702 -18.058653 -76.923447 -17.475597 -0.35281914 46.669003
3383125000 -0.18863335 44.409824 -76.429352 -18.954294 -76.61351 -17.000738 -0.36011061 45.442013
3392120000 -0.18515046 43.561405 -76.26783 -18.684568 -76.442368 -18.456917 -0.34660459 44.47031
3401115000 -0.17999046 42.758213 -76.35965 -20.147316 -76.391602 -18.763279 -0.32104278 43.8867
3410110000 -0.1791123 41.966656 -76.256241 -21.301214 -76.294212 -18.534346 -0.29949716 43.507828
3419105000 -0.1810461 41.145298 -76.05999 -21.671846 -76.171295 -19.726709 -0.29820326 43.057335
3428100000 -0.18180156 40.319672 -75.836777 -21.545238 -75.936394 -20.190821 -0.31536838 42.335426
3437095000 -0.1831622 39.502747 -75.667969 -25.369074 -75.565987 -22.895363 -0.34140134 41.248447
3446090000 -0.18138777 38.676048 -75.691597 -27.861456 -75.499535 -26.461491 -0.35842913 39.963741
3455085000 -0.17713057 37.841656 -75.78199 -29.173824 -75.655968 -28.186777 -0.35381007 38.83176
3464080000 -0.17378353 37.053749 -75.806282 -30.87446 -75.71373 -28.459507 -0.33281821 38.069294
3473075000 -0.17560604 36.267639 -75.663033 -31.495792 -75.70874 -29.50458 -0.30872855 37.593056
3482070000 -0.17869528 35.441341 -75.723053 -31.765591 -75.795792 -30.559223 -0.29463863 37.22868
3491065000 -0.18156402 34.619801 -75.642303 -32.253819 -75.460922 -31.427303 -0.29939455 36.699574
3500060000 -0.18144472 33.793644 -75.633591 -33.527966 -75.520706 -32.367161 -0.32313117 35.803284
3509055000 -0.17975329 32.94426 -75.575432 -33.372879 -75.268623 -32.858799 -0.34630686 34.582756
3518050000 -0.17386489 32.106834 -75.253586 -33.366814 -75.018646 -34.104027 -0.35459563 33.363976
3527045000 -0.17007507 31.341068 -74.874641 -36.172222 -74.789612 -35.775833 -0.34425578 32.416821
3536040000 -0.1719868 30.540682 -75.204224 -36.714478 -74.658073 -38.461498 -0.31900802 31.785912
3545035000 -0.17524163 29.713392 -74.938187 -39.179913 -74.906799 -38.115047 -0.29820493 31.403349
3554030000 -0.17790988 28.903521 -74.858688 -40.595535 -74.776512 -39.794209 -0.29127401 31.005297
3563025000 -0.17821625 28.072535 -74.516556 -40.648113 -74.499352 -40.448593 -0.306739 30.281466
3572020000 -0.17404595 27.209572 -74.47863 -44.054928 -74.373741 -43.986786 -0.3315694 29.184729
3581015000 -0.16771109 26.387371 -74.416237 -45.316078 -74.455254 -45.373775 -0.34878385 27.944223
3590010000 -0.16588946 25.617331 -74.629158 -49.674892 -74.334808 -49.057373 -0.35125667 26.817801
3599005000 -0.16881973 24.804529 -74.725983 -50.294933 -74.581566 -50.604183 -0.33253902 25.995541
3608000000 -0.17179829 23.973213 -74.686729 -52.921608 -74.674637 -52.489491 -0.3034541 25.525253
3616995000 -0.1741443 23.168493 -75.039459 -54.301132 -74.845695 -52.688511 -0.28658286 25.187111
3625990000 -0.17339179 22.318953 -75.345863 -55.797867 -75.100372 -55.132977 -0.28944603 24.647984
3634985000 -0.16819595 21.47533 -75.420242 -55.257023 -75.202721 -54.489624 -0.31037948 23.743792
3643980000 -0.16270907 20.669336 -75.167068 -54.806664 -75.040871 -55.07304 -0.3372348 22.580961
3652975000 -0.161296 19.898083 -75.613747 -57.416321 -75.280113 -55.584892 -0.35232136 21.34972
3661970000 -0.16467698 19.076443 -75.532242 -55.2313 -75.49675 -55.125965 -0.3431471 20.330807
3670965000 -0.16613796 18.252497 -75.529694 -55.329811 -75.143486 -55.82019 -0.31426513 19.709011
3679960000 -0.16917793 17.429892 -75.212822 -55.897507 -75.090057 -56.394577 -0.28797174 19.339752
3688955000 -0.16880976 16.57967 -75.039574 -57.084293 -74.97374 -57.447556 -0.27831537 18.915127
3697950000 -0.16452318 15.717251 -74.94825 -57.871086 -74.941193 -58.468231 -0.29158461 18.216972
3706945000 -0.15829267 14.924042 -74.81353 -57.861458 -74.632774 -58.988205 -0.32149878 17.184036
3715940000 -0.15796944 14.134197 -74.439461 -58.901775 -74.434906 -59.127922 -0.34963247 15.916464
3724935000 -0.1613062 13.305722 -74.473007 -62.125919 -74.381027 -62.057159 -0.35398391 14.717417
3733930000 -0.16440946 12.481615 -74.316826 -64.22332 -74.478203 -64.003761 -0.33036202 13.889327
3742925000 -0.16737506 11.655788 -74.577049 -65.368134 -74.502861 -65.011337 -0.2974489 13.407715
3751920000 -0.16493186 10.795236 -74.687943 -65.807297 -74.687065 -66.174957 -0.27321473 13.029984
3760915000 -0.15974747 9.9405975 -74.855797 -65.579544 -74.783195 -65.603172 -0.27273262 12.527464
3769910000 -0.15452527 9.1457491 -74.603401 -65.780678 -74.616737 -66.943497 -0.30042219 11.686908
3778905000 -0.15459205 8.3590288 -74.562782 -67.513596 -74.629791 -67.126282 -0.33545336 10.470529
3787900000 -0.15764087 7.5355563 -74.634094 -68.280937 -74.656006 -68.376328 -0.35361153 9.1802635
3796895000 -0.15864545 6.7175674 -74.749657 -68.649506 -74.449364 -67.98642 -0.34137332 8.1648216
3805890000 -0.16153429 5.8942237 -74.51635 -68.0242 -74.437714 -68.469353 -0.30740467 7.5154543
3814885000 -0.16031873 5.0346107 -74.15062 -69.01786 -74.002632 -70.262817 -0.272414 7.1344218
3823880000 -0.15444668 4.1888695 -73.910606 -71.237099 -73.952995 -72.119621 -0.25981125 6.7873168
3832875000 -0.15098064 3.3878825 -73.77787 -73.974678 -73.543976 -75.192749 -0.27873242 6.1400919
3841870000 -0.15294403 2.5772595 -73.751274 -77.488747 -73.682106 -79.335518 -0.31975833 5.0575919
3850865000 -0.15598847 1.7381498 -73.803185 -80.291656 -73.868217 -81.103249 -0.35053626 3.7423384
3859860000 -0.15745673 0.91434175 -74.046654 -80.99868 -74.164787 -82.570641 -0.35361519 2.5268865
3868855000 -0.15922193 0.084838621 -74.200813 -83.020538 -74.356956 -83.467903 -0.32560977 1.640504
3877850000 -0.15632819 -0.78908247 -74.441711 -83.306137 -74.593521 -83.513641 -0.28189233 1.1458585
3886845000 -0.15196759 -1.6044077 -74.605522 -84.490845 -74.607109 -84.124825 -0.25198188 0.87212694
3895840000 -0.15041569 -2.3956404 -74.709625 -83.221695 -74.642433 -82.574692 -0.25811842 0.43844622
3904835000 -0.15287137 -3.2275083 -74.580467 -82.283768 -74.559402 -82.702911 -0.29451951 -0.44169104
3913830000 -0.15592757 -4.0711112 -74.62439 -82.754524 -74.651909 -83.659737 -0.33599758 -1.6536335
3922825000 -0.15813668 -4.9028702 -74.784317 -82.091652 -74.72187 -81.309723 -0.35542798 -2.9688354
3931820000 -0.15974963 -5.7537494 -74.607689 -81.353722 -74.486488 -79.98056 -0.33994624 -4.0672946
3940815000 -0.15476829 -6.6286736 -74.522461 -80.989662 -74.301758 -81.452911 -0.29789692 -4.7494187
3949810000 -0.14819898 -7.4477649 -74.248184 -80.873398 -74.271057 -80.398514 -0.25748143 -5.0792494
3958805000 -0.14703481 -8.2415228 -74.133087 -81.617325 -73.881447 -81.279099 -0.24918851 -5.4327559
3967800000 -0.14978652 -9.0538092 -73.783142 -83.87928 -73.706505 -82.79818 -0.27382484 -6.1133428
3976795000 -0.15195177 -9.8876772 -73.807404 -85.224373 -73.693977 -85.011368 -0.3172023 -7.1824393
3985790000 -0.15615484 -10.712614 -74.028572 -85.724373 -73.886223 -86.397301 -0.35165775 -8.4940996
3994785000 -0.15695804 -11.574009 -74.002289 -85.859489 -73.84893 -87.459236 -0.35186633 -9.7392225
4003780000 -0.15565281 -12.453025 -74.065117 -84.955055 -73.962555 -85.631264 -0.31476942 -10.591749
4012775000 -0.14952421 -13.276169 -73.750763 -84.763039 -73.725471 -87.209282 -0.2706449 -11.027781
4021770000 -0.15055504 -14.086154 -73.644753 -86.543549 -73.695671 -86.465424 -0.24616326 -11.345766
4030765000 -0.15161535 -14.920699 -73.32341 -85.76403 -73.407211 -86.296326 -0.25498018 -11.865508
4039760000 -0.15361041 -15.758621 -72.802101 -87.63871 -72.967041 -88.70063 -0.29379821 -12.751965
4048755000 -0.15671006 -16.580442 -72.787567 -88.21756 -72.680283 -89.43631 -0.33710974 -13.986701
4057750000 -0.15615055 -17.443825 -72.57328 -91.213524 -72.58622 -91.723579 -0.35543782 -15.319416
4066745000 -0.15207025 -18.302759 -72.460197 -91.52372 -72.382919 -93.224655 -0.33415097 -16.354506
4075740000 -0.14881773 -19.115692 -72.257736 -91.827316 -72.29216 -92.469025 -0.2918731 -16.968769
4084735000 -0.1501788 -19.929409 -71.870644 -92.737579 -72.149353 -94.122498 -0.25524262 -17.34688
4093730000 -0.15262523 -20.777142 -71.885239 -95.380753 -71.873215 -96.457794 -0.24626079 -17.752117
4102725000 -0.15583901 -21.625977 -71.664139 -97.999809 -71.758575 -98.612411 -0.27220866 -18.44375
4111720000 -0.15711801 -22.467875 -71.780823 -99.71357 -71.944824 -99.927597 -0.31663787 -19.550167
4120715000 -0.15609822 -23.351158 -71.716248 -101.35987 -71.847542 -101.91111 -0.3493323 -20.887844
4129710000 -0.15211959 -24.203751 -71.818596 -103.23274 -72.020973 -102.88535 -0.34723631 -22.061121
4138705000 -0.1487339 -25.013477 -72.084137 -103.91601 -72.120583 -103.29252 -0.31368938 -22.866173
4147700000 -0.15032324 -25.83704 -72.20681 -104.05444 -72.172096 -104.64268 -0.2705369 -23.347809
4156695000 -0.15209332 -26.680311 -72.160934 -104.53182 -72.19709 -103.48222 -0.24500294 -23.703896
4165690000 -0.15563993 -27.518934 -72.27153 -105.05 -72.298927 -104.34541 -0.25428048 -24.23201
4174685000 -0.1561849 -28.375023 -72.345299 -104.40998 -72.370293 -103.65132 -0.29422033 -25.180487
4183680000 -0.15602443 -29.25662 -72.589928 -104.10507 -72.383713 -103.62057 -0.33652875 -26.445503
4192675000 -0.15291803 -30.100719 -72.25106 -102.29974 -72.199333 -102.3612 -0.35398027 -27.704971
4201670000 -0.15153278 -30.903761 -71.657722 -102.03341 -71.673485 -102.37724 -0.33404025 -28.690073
4210665000 -0.15293787 -31.743748 -71.390709 -103.34927 -71.228188 -103.58572 -0.29157436 -29.334389
4219660000 -0.15591361 -32.604691 -71.170929 -105.72119 -71.100899 -105.13988 -0.25162473 -29.70454
4228655000 -0.15937205 -33.450764 -70.985512 -106.5672 -70.948715 -106.55592 -0.24255157 -30.133371
4237650000 -0.16009554 -34.323112 -70.866714 -107.6581 -70.739265 -108.64832 -0.27025536 -30.915333
4246645000 -0.15931672 -35.213886 -70.604485 -109.41694 -70.641571 -110.14178 -0.31731287 -32.054981
4255640000 -0.15474871 -36.053802 -70.572586 -111.20478 -70.599258 -111.8538 -0.35306144 -33.331779
4264635000 -0.15309501 -36.861286 -70.587784 -112.61793 -70.571907 -113.39303 -0.35341498 -34.489662
4273630000 -0.15598606 -37.70443 -70.535927 -112.87804 -70.585335 -112.51503 -0.31677431 -35.306461
4282625000 -0.15779039 -38.555538 -70.274109 -112.95139 -70.33094 -112.56422 -0.26835936 -35.752163
4291620000 -0.16053119 -39.395042 -70.055679 -113.35681 -70.084076 -113.29902 -0.23888761 -36.131672
4300615000 -0.16186477 -40.274582 -69.896561 -114.98653 -69.916458 -115.30021 -0.2505112 -36.754311
4309610000 -0.16022553 -41.155579 -69.771759 -115.83896 -69.827736 -115.88937 -0.29348025 -37.726959
4318605000 -0.15584384 -41.994049 -69.452469 -117.0155 -69.394684 -117.21078 -0.3423821 -38.966793
4327600000 -0.15684828 -42.823734 -69.307327 -120.16676 -69.314896 -120.29347 -0.36407733 -40.235264
4336595000 -0.1583485 -43.678192 -69.455307 -121.84109 -69.478584 -121.81021 -0.34231013 -41.225948
4345590000 -0.16073427 -44.534496 -69.466759 -122.03593 -69.560814 -121.67857 -0.29311052 -41.809143
4354585000 -0.16295148 -45.376637 -69.306717 -122.11712 -69.332397 -121.89665 -0.24974753 -42.196365
4363580000 -0.16362773 -46.262577 -68.99147 -123.55421 -68.870644 -123.57118 -0.23878422 -42.683216
4372575000 -0.16228878 -47.133705 -68.704933 -126.64558 -68.682472 -126.83278 -0.26926264 -43.470798
4381570000 -0.1605328 -47.968433 -68.702888 -128.72121 -68.702988 -129.25522 -0.32483754 -44.597298
4390565000 -0.16087073 -48.819881 -68.7612 -131.12709 -68.756119 -131.18417 -0.36702165 -45.913498
4399560000 -0.16465735 -49.680794 -68.853302 -132.5309 -68.88942 -132.90279 -0.3669298 -47.060699
4408555000 -0.16657773 -50.528049 -68.945129 -133.90611 -68.972473 -134.27261 -0.32472596 -47.831402
4417550000 -0.16906139 -51.381271 -69.052177 -134.38081 -69.087715 -134.66344 -0.2699694 -48.310364
4426545000 -0.16994156 -52.270546 -69.059929 -134.03496 -69.18602 -133.98697 -0.23656105 -48.720009
4435540000 -0.16789001 -53.140896 -68.991119 -133.04808 -68.91787 -133.24208 -0.24750639 -49.330685
4444535000 -0.16789512 -53.986778 -68.528534 -132.98276 -68.637909 -133.31017 -0.30015117 -50.317825
4453530000 -0.16835363 -54.841064 -68.160995 -134.44902 -68.273636 -133.88603 -0.3587575 -51.603359
4462525000 -0.17042613 -55.715485 -68.045082 -135.71471 -68.237022 -136.04646 -0.38281438 -52.872032
4471520000 -0.17121609 -56.561543 -67.894386 -136.2825 -67.994812 -136.68562 -0.35797933 -53.823746
4480515000 -0.17371455 -57.419113 -67.575882 -138.21643 -67.653915 -137.84967 -0.29881218 -54.432426
4489510000 -0.17529798 -58.30983 -67.427948 -140.59134 -67.517929 -140.48021 -0.24599232 -54.833447
4498505000 -0.17312025 -59.164833 -67.427414 -141.93617 -67.449585 -141.7836 -0.23502836 -55.300285
4507500000 -0.17256372 -60.010548 -67.297523 -141.82674 -67.385643 -141.95471 -0.27411377 -56.119576
4516495000 -0.17480451 -60.873768 -66.896446 -143.80617 -66.936066 -143.59601 -0.34081274 -57.319489
4525490000 -0.17690139 -61.738251 -66.74276 -146.85454 -66.745697 -147.07402 -0.38914979 -58.63895
4534485000 -0.17952587 -62.596752 -66.748161 -149.51877 -66.863907 -150.15868 -0.38621363 -59.766411
4543480000 -0.18310332 -63.469746 -67.022087 -151.59836 -67.062851 -151.31316 -0.33462372 -60.542362
4552475000 -0.18378164 -64.369095 -67.103561 -151.31685 -67.11441 -151.19716 -0.26954055 -60.983345
4561470000 -0.18289003 -65.240532 -66.881798 -152.06021 -66.824005 -151.71532 -0.23418956 -61.3568
4570465000 -0.18177672 -66.088081 -66.678764 -154.16272 -66.682671 -154.10367 -0.25457639 -62.029949
4579460000 -0.18350458 -66.956146 -66.618195 -156.57167 -66.694115 -156.30632 -0.31946662 -63.102547
4588455000 -0.18578613 -67.822578 -66.701332 -158.21602 -66.719116 -157.51759 -0.38526928 -64.421234
4597450000 -0.18942095 -68.670692 -66.698029 -159.25731 -66.62159 -159.02504 -0.40945113 -65.691673
4606445000 -0.1925019 -69.556206 -66.662292 -160.25826 -66.662048 -160.47253 -0.37422922 -66.639496
4615440000 -0.19142345 -70.435165 -66.668388 -161.38763 -66.638199 -160.995 -0.30528522 -67.17038
4624435000 -0.19099443 -71.306847 -66.592224 -161.75598 -66.601326 -161.73364 -0.24852404 -67.504326
4633430000 -0.1928158 -72.163353 -66.404716 -161.72752 -66.385582 -161.5708 -0.24276234 -68.015625
4642425000 -0.19467719 -73.038017 -66.144432 -163.70848 -66.17231 -163.20399 -0.29248607 -68.913734
4651420000 -0.19691668 -73.917938 -66.191132 -165.28534 -66.178825 -165.21954 -0.36824152 -70.154877
4660415000 -0.20122777 -74.792747 -66.163132 -165.40718 -66.212372 -165.59421 -0.41906089 -71.519516
4669410000 -0.20151573 -75.692261 -66.00898 -165.86548 -66.003716 -165.70313 -0.40923637 -72.657669
4678405000 -0.20131101 -76.579109 -65.763649 -167.07802 -65.743446 -166.3562 -0.34870589 -73.349045
4687400000 -0.19957525 -77.431496 -65.559326 -169.46579 -65.525627 -168.95355 -0.27645311 -73.736359
4696395000 -0.20177984 -78.290581 -65.474525 -171.45444 -65.569572 -170.57666 -0.2419316 -74.146538
4705390000 -0.20480417 -79.160995 -65.634155 -172.36531 -65.592354 -171.87376 -0.26873717 -74.876358
4714385000 -0.20921573 -80.033966 -65.650551 -172.65289 -65.575157 -172.3269 -0.34236363 -75.996788
4723380000 -0.21157743 -80.909111 -65.577339 -173.24306 -65.491867 -173.12762 -0.41487759 -77.369576
4732375000 -0.2131497 -81.813644 -65.46669 -173.81409 -65.302109 -174.03865 -0.43646178 -78.626694
4741370000 -0.2137835 -82.695938 -65.266747 -175.40057 -65.195183 -175.21561 -0.39311337 -79.487656
4750365000 -0.21463335 -83.566994 -65.113396 -175.9984 -65.034081 -176.05742 -0.31732261 -79.970383
4759360000 -0.21630277 -84.441124 -64.847137 -177.55672 -64.824295 -177.88416 -0.25812611 -80.33329
4768355000 -0.21859047 -85.321114 -64.818771 179.77892 -64.873795 179.78548 -0.25593117 -80.900169
4777350000 -0.22200765 -86.196678 -64.698586 179.08644 -64.763733 178.95174 -0.31525677 -81.881371
4786345000 -0.224867 -87.078102 -64.542053 177.99353 -64.517067 177.45261 -0.39995426 -83.216721
4795340000 -0.22644082 -87.97142 -64.483284 175.55359 -64.418396 175.88701 -0.45319846 -84.589508
4804335000 -0.22657445 -88.844925 -64.249168 174.6234 -64.263222 174.26569 -0.43873328 -85.643196
4813330000 -0.22862472 -89.721802 -64.187172 172.03102 -64.181259 172.55948 -0.36849004 -86.255669
4822325000 -0.23176911 -90.604881 -64.189804 171.12164 -64.176849 171.25206 -0.28982621 -86.610367
4831320000 -0.23440485 -91.495621 -63.916985 169.95724 -63.93399 169.79208 -0.25502408 -87.026306
4840315000 -0.23644488 -92.377243 -63.82085 168.25737 -63.78294 168.20958 -0.29002103 -87.810242
4849310000 -0.23982964 -93.260498 -63.687862 165.52577 -63.669411 165.8916 -0.3747744 -89.034332
4858305000 -0.24100636 -94.154366 -63.773647 163.79721 -63.746803 163.92148 -0.45437697 -90.45343
4867300000 -0.24101621 -95.024994 -63.780972 162.28539 -63.677017 162.60352 -0.47688913 -91.693848
4876295000 -0.24379693 -95.893776 -63.755081 161.75633 -63.629467 161.313 -0.42681518 -92.525711
4885290000 -0.24595177 -96.77771 -63.659721 160.51294 -63.626839 160.28584 -0.33885714 -92.960876
4894285000 -0.24893001 -97.671265 -63.600704 158.93623 -63.533798 159.0439 -0.27244487 -93.288689
4903280000 -0.25191849 -98.563652 -63.602711 157.95831 -63.569 157.5732 -0.27228555 -93.872589
4912275000 -0.25517893 -99.46228 -63.613846 156.71889 -63.497883 156.11803 -0.34285662 -94.924873
4921270000 -0.25634003 -100.36723 -63.537319 155.45303 -63.444839 155.03128 -0.44051778 -96.296539
4930265000 -0.25795195 -101.24652 -63.511856 154.06013 -63.424458 153.42461 -0.49924475 -97.678734
4939260000 -0.26037741 -102.1256 -63.493553 153.57224 -63.406071 152.68219 -0.48112163 -98.733528
4948255000 -0.2630226 -103.01316 -63.347771 152.91539 -63.336323 151.9077 -0.39985237 -99.321236
4957250000 -0.26619887 -103.89713 -63.215134 151.13896 -63.260609 150.37228 -0.30838919 -99.631897
4966245000 -0.26909077 -104.78929 -63.066502 150.24783 -63.135479 149.22205 -0.26985013 -100.05447
4975240000 -0.27186364 -105.69047 -62.944736 147.89644 -62.988464 147.62238 -0.31299493 -100.87598
4984235000 -0.2742216 -106.58607 -62.874199 146.23628 -62.963627 145.73857 -0.41226727 -102.13525
4993230000 -0.27665284 -107.47514 -62.802101 145.43091 -62.879265 145.22549 -0.504309 -103.5927
5002225000 -0.27854916 -108.36689 -62.606892 144.42136 -62.693501 144.09288 -0.52689922 -104.85863
5011220000 -0.28149322 -109.25619 -62.472752 142.21062 -62.559124 141.97868 -0.4652524 -105.66101
5020215000 -0.28238541 -110.13819 -62.338608 141.72591 -62.469868 141.43806 -0.36222181 -106.0452
5029210000 -0.28663233 -111.02379 -61.954021 140.89911 -62.151207 141.18987 -0.28670368 -106.34951
5038205000 -0.28903487 -111.90767 -61.60841 138.67801 -61.722977 138.96648 -0.29256141 -106.93522
5047200000 -0.29161313 -112.79848 -61.370663 135.78107 -61.518723 135.99002 -0.37805468 -108.00447
5056195000 -0.29544044 -113.68941 -61.321953 132.3685 -61.325844 133.33246 -0.49281612 -109.44366
5065190000 -0.2980186 -114.58537 -61.3279 129.95662 -61.350815 130.84648 -0.55896932 -110.87704
5074185000 -0.30131245 -115.48618 -61.225372 127.84377 -61.296402 128.56633 -0.53246695 -111.94975
5083180000 -0.3038919 -116.38779 -61.345428 125.58102 -61.342533 126.27229 -0.43278816 -112.51212
5092175000 -0.30640399 -117.28811 -61.5033 124.478 -61.464291 125.26546 -0.32909381 -112.79771
5101170000 -0.30980483 -118.18106 -61.411629 124.46082 -61.410145 124.76077 -0.28890732 -113.19598
5110165000 -0.31181523 -119.07633 -61.22382 122.81501 -61.150677 123.1779 -0.34514526 -114.02693
5119160000 -0.31552455 -119.96854 -61.132866 119.78094 -61.069168 119.96852 -0.46520802 -115.32855
5128155000 -0.31772393 -120.85612 -61.373955 117.35283 -61.262325 117.31809 -0.5695048 -116.82969
5137150000 -0.32174075 -121.74307 -61.54961 116.61095 -61.46524 116.08525 -0.5898177 -118.11002
5146145000 -0.32392374 -122.63947 -61.579639 116.60178 -61.515621 116.02376 -0.5118534 -118.89613
5155140000 -0.32693726 -123.52689 -61.389473 115.40773 -61.384438 115.39861 -0.39226243 -119.2408
5164135000 -0.33071899 -124.41615 -61.365284 114.51207 -61.326435 113.97498 -0.30989045 -119.51836
5173130000 -0.3343682 -125.31947 -61.122959 113.21595 -61.134583 112.77672 -0.32251412 -120.11996
5182125000 -0.33720207 -126.22863 -60.961655 110.68756 -60.976425 110.47702 -0.42817596 -121.25117
5191120000 -0.33997425 -127.13428 -60.974476 108.05772 -60.966679 107.81791 -0.56125754 -122.75025
5200115000 -0.34270367 -128.03659 -61.077347 106.7398 -61.072842 106.4455 -0.63000828 -124.23412
5209110000 -0.34488937 -128.93732 -60.900818 105.90388 -60.895973 105.81778 -0.59239459 -125.28943
5218105000 -0.34766451 -129.82632 -60.69408 103.84575 -60.724293 104.0969 -0.47396961 -125.8033
5227100000 -0.35053739 -130.71255 -60.565598 102.07764 -60.557762 102.09626 -0.35603961 -126.03256
5236095000 -0.35473609 -131.59851 -60.495922 99.863403 -60.4328 99.617943 -0.31566623 -126.41422
5245090000 -0.35801533 -132.49907 -60.369713 98.242874 -60.401661 97.982681 -0.38535643 -127.2642
5254085000 -0.36097917 -133.40076 -60.218998 96.646103 -60.281685 95.848953 -0.52446312 -128.61862
5263080000 -0.36434981 -134.31697 -60.165508 94.572372 -60.250126 94.05175 -0.63983005 -130.18398
5272075000 -0.36717489 -135.22322 -60.025002 92.758362 -60.136879 92.826035 -0.65518159 -131.49518
5281070000 -0.36992061 -136.12494 -59.924446 90.488243 -60.015491 90.60704 -0.56365865 -132.25996
5290065000 -0.37351429 -137.02043 -59.89093 88.402412 -59.993938 88.374641 -0.427313 -132.57507
5299060000 -0.37681311 -137.91907 -59.788048 85.937294 -59.883289 86.065605 -0.33668146 -132.82571
5308055000 -0.38224983 -138.81946 -59.85265 83.328331 -59.918217 83.442177 -0.35537094 -133.41161
5317050000 -0.3855052 -139.71071 -59.907997 80.649956 -59.95134 80.824829 -0.47868535 -134.54463
5326045000 -0.38689414 -140.61455 -60.192017 78.074242 -60.188667 78.37455 -0.6270178 -136.07457
5335040000 -0.38905153 -141.51617 -60.388393 77.451363 -60.421776 77.085487 -0.70051605 -137.5705
5344035000 -0.39165786 -142.39633 -60.3769 76.219162 -60.430378 75.943626 -0.65206003 -138.6331
5353030000 -0.39520979 -143.29037 -60.530346 74.544128 -60.598587 74.027931 -0.51795655 -139.15521
5362025000 -0.40011746 -144.20081 -60.420567 73.003113 -60.482609 72.82029 -0.38719609 -139.37164
5371020000 -0.40423256 -145.0993 -60.521492 70.145439 -60.559223 69.981651 -0.34677505 -139.73476
5380015000 -0.4074823 -146.00354 -60.631294 67.835114 -60.640457 68.301254 -0.43164954 -140.59305
5389010000 -0.41060644 -146.91859 -60.726219 65.747581 -60.722775 66.05545 -0.59168261 -141.96103
5398005000 -0.41200882 -147.81491 -60.996689 63.950932 -60.887291 64.054939 -0.71933621 -143.53592
5407000000 -0.41344896 -148.69733 -61.176445 62.527908 -61.088249 62.473351 -0.73297948 -144.87958
5415995000 -0.41937047 -149.58833 -61.262535 62.963299 -61.214676 62.442131 -0.62456346 -145.68231
5424990000 -0.4255071 -150.50533 -61.165421 62.573372 -61.163517 61.649876 -0.46666273 -145.99858
5433985000 -0.4277986 -151.418 -60.941822 61.826942 -61.044453 61.413334 -0.36555204 -146.21628
5442980000 -0.43108547 -152.3336 -60.801865 59.738583 -60.972401 59.51228 -0.39191282 -146.78505
5451975000 -0.43199748 -153.25386 -60.660275 58.885727 -60.836533 58.787392 -0.53337181 -147.88814
5460970000 -0.43284336 -154.13791 -60.598141 55.812012 -60.77467 56.55336 -0.70031685 -149.39792
5469965000 -0.43708351 -155.01512 -60.703056 54.371357 -60.887264 55.418194 -0.78732038 -150.93463
5478960000 -0.44334096 -155.91002 -60.572983 53.393532 -60.776451 54.535332 -0.73007005 -152.07985
5487955000 -0.44763181 -156.81638 -60.525856 51.0858 -60.650822 52.336449 -0.57240218 -152.63383
5496950000 -0.4500134 -157.71698 -60.662746 49.100639 -60.712341 49.732868 -0.42237335 -152.85396
5505945000 -0.45376512 -158.63493 -60.833939 47.509583 -60.847862 47.892784 -0.37693763 -153.19327
5514940000 -0.4548426 -159.55481 -61.047852 45.900761 -61.038845 45.843666 -0.47328281 -153.9807
5523935000 -0.45514327 -160.44398 -61.231884 46.10894 -61.281445 45.945015 -0.65532637 -155.28563
5532930000 -0.45853263 -161.33102 -61.174381 45.21693 -61.182446 44.898243 -0.80663443 -156.86929
5541925000 -0.46418327 -162.22621 -61.195156 44.272961 -61.344055 43.438061 -0.8198607 -158.28722
5550920000 -0.47073409 -163.14462 -61.11076 43.091217 -61.251492 42.354183 -0.69042659 -159.14642
5559915000 -0.47320488 -164.05643 -60.95483 40.598568 -61.121712 40.247997 -0.51078671 -159.50929
5568910000 -0.47625995 -164.9781 -60.875935 37.266613 -61.065441 37.115494 -0.39548621 -159.74283
5577905000 -0.47558436 -165.89259 -61.069641 33.250725 -61.169132 33.432648 -0.42576236 -160.22433
5586900000 -0.47676259 -166.76323 -61.469746 30.114243 -61.514183 30.410177 -0.5896914 -161.2261
5595895000 -0.48095506 -167.64149 -61.757065 29.544416 -61.838055 29.850805 -0.78350055 -162.71426
5604890000 -0.48909688 -168.54443 -61.806499 27.667547 -61.86832 28.431679 -0.87297356 -164.29514
5613885000 -0.49313626 -169.46249 -61.99128 26.244492 -62.050968 27.288857 -0.8008399 -165.48776
5622880000 -0.49571124 -170.37611 -62.107899 24.790253 -62.094543 26.226942 -0.62220281 -166.12611
5631875000 -0.49973586 -171.30965 -62.24036 24.809929 -62.185181 26.060049 -0.45201021 -166.38933
5640870000 -0.49837366 -172.22523 -62.137318 24.485083 -62.069763 25.03051 -0.40576902 -166.67792
5649865000 -0.49903366 -173.10083 -62.178223 22.978508 -62.081371 23.516888 -0.52334982 -167.37219
5658860000 -0.5038901 -173.98921 -62.252838 22.131224 -62.116982 22.60338 -0.73347747 -168.63293
5667855000 -0.50937217 -174.8855 -62.344749 21.727364 -62.290855 21.976479 -0.89626604 -170.22275
5676850000 -0.51403242 -175.79697 -62.418961 21.784143 -62.30621 21.906233 -0.90243733 -171.68701
5685845000 -0.51602423 -176.70723 -62.427849 20.990931 -62.375378 20.713636 -0.75178754 -172.65633
5694840000 -0.51950985 -177.63483 -62.511532 20.695995 -62.491512 20.053814 -0.54591542 -173.09688
5703835000 -0.51821959 -178.55122 -62.476269 20.408178 -62.556072 19.607058 -0.42192063 -173.28754
5712830000 -0.51931292 -179.42598 -62.695919 19.54851 -62.713707 19.007011 -0.46749377 -173.71349
5721825000 -0.52441549 179.68333 -62.853718 20.253904 -62.816811 18.715 -0.65740842 -174.66005
5730820000 -0.52960777 178.77124 -63.001106 19.638138 -63.076984 18.241413 -0.86952513 -176.08812
5739815000 -0.53248918 177.86833 -63.001575 19.491447 -63.073879 18.14959 -0.96369457 -177.68643
5748810000 -0.53532392 176.95367 -63.024227 18.204433 -63.187939 17.416479 -0.87517214 -179.00713
5757805000 -0.53671616 176.0269 -63.110897 17.037317 -63.243134 16.129465 -0.66735101 -179.71013
5766800000 -0.53679729 175.12758 -63.240887 15.137733 -63.302471 14.335938 -0.48138681 -179.97304
5775795000 -0.53846842 174.24342 -63.445576 14.101308 -63.575668 13.429614 -0.44214794 179.76987
5784790000 -0.54367691 173.34396 -63.587055 12.869966 -63.706669 13.498905 -0.57890129 179.13998
5793785000 -0.54802436 172.4249 -63.67046 12.409738 -63.661484 13.251452 -0.80669802 178.0022
5802780000 -0.55147874 171.52429 -63.76049 11.15169 -63.730377 11.88065 -0.98123586 176.44011
5811775000 -0.55539393 170.58694 -63.872696 10.946486 -63.79253 11.23613 -0.97909254 174.88239
5820770000 -0.55505949 169.66014 -63.800343 11.211685 -63.759731 11.202489 -0.805601 173.81828
5829765000 -0.55193555 168.7722 -63.670105 10.665069 -63.687347 10.653659 -0.58251566 173.3324
5838760000 -0.55655575 167.90025 -63.423237 9.7684774 -63.442787 10.2562 -0.45958078 173.08977
5847755000 -0.56215167 166.99706 -63.312771 8.1771984 -63.341682 8.8514347 -0.51407582 172.70354
5856750000 -0.56828696 166.07483 -63.228813 6.9766526 -63.35136 7.6051154 -0.72205102 171.9211
5865745000 -0.57286322 165.16972 -63.249115 5.3820176 -63.336273 6.7985859 -0.9517343 170.58344
5874740000 -0.57391012 164.23911 -63.33712 4.2331858 -63.46825 6.0370283 -1.0459908 168.95976
5883735000 -0.57296747 163.32123 -63.506615 4.3196421 -63.534634 6.4430032 -0.94123733 167.5762
5892730000 -0.57208115 162.44656 -63.547768 4.7990804 -63.558369 6.4639378 -0.71635288 166.74678
5901725000 -0.57572472 161.57547 -63.591557 4.0042524 -63.569374 6.0072136 -0.52194607 166.35326
5910720000 -0.58185881 160.65862 -63.718315 4.3642507 -63.60828 5.8728242 -0.48328847 166.09386
5919715000 -0.5847953 159.74496 -63.809784 3.8666017 -63.698822 5.4686646 -0.63173509 165.61438
5928710000 -0.58841038 158.83318 -64.116829 3.2726078 -63.984009 3.5867112 -0.87822384 164.61095
5937705000 -0.58954728 157.89713 -64.458855 5.0296526 -64.411232 4.9127746 -1.0569307 163.13191
5946700000 -0.58668792 156.9912 -64.478554 8.0320883 -64.392525 7.9873052 -1.0477315 161.56827
5955695000 -0.58572567 156.13007 -64.091232 8.1261377 -64.041969 7.780015 -0.86302054 160.36023
5964690000 -0.59226996 155.24663 -64.025177 6.0058646 -63.970226 5.4876285 -0.62648934 159.66666
5973685000 -0.59868896 154.32199 -64.205536 3.9198866 -64.22921 3.5391946 -0.4936977 159.35666
5982680000 -0.60190266 153.40576 -64.538116 3.214577 -64.517677 3.0794396 -0.55426091 159.09184
5991675000 -0.60436147 152.47508 -64.714638 4.0736809 -64.732765 4.103241 -0.77479911 158.45715
6000670000 -0.6053282 151.52037 -64.818916 4.7558308 -64.721886 4.6334481 -1.0117779 157.29674
6009665000 -0.60244828 150.6302 -64.788399 6.4091239 -64.766365 5.65133 -1.1071278 155.75633
6018660000 -0.60130829 149.75873 -64.387794 6.828938 -64.460938 6.588222 -1.0014082 154.23151
6027655000 -0.60786366 148.87567 -64.189255 6.5328088 -64.271309 5.7483053 -0.76408297 153.14206
6036650000 -0.61445725 147.95528 -63.948925 5.3890238 -64.02285 5.4032874 -0.55613649 152.61287
6045645000 -0.61680323 147.04735 -63.800827 3.3255675 -63.842728 3.6571813 -0.51793903 152.35876
6054640000 -0.61816847 146.10954 -63.933109 2.1292145 -63.962105 2.2278435 -0.67462581 152.01985
6063635000 -0.61770439 145.15898 -64.133415 2.7436888 -64.153374 2.385092 -0.92599422 151.26079
6072630000 -0.61249554 144.27904 -64.193535 5.2730374 -64.214317 4.9688468 -1.1161896 149.97522
6081625000 -0.61506712 143.41539 -63.886242 8.0410004 -63.851723 7.6337328 -1.1123911 148.31537
6090620000 -0.62136734 142.52924 -63.504333 8.3590336 -63.523266 7.9372458 -0.91513252 146.84348
6099615000 -0.62596875 141.61977 -63.292789 9.0420065 -63.327068 8.7640562 -0.66407651 145.95151
6108610000 -0.62924159 140.70343 -62.781204 9.2941751 -62.88707 8.906703 -0.52721196 145.55223
6117605000 -0.6319977 139.75636 -62.548943 7.3103704 -62.586208 7.0245438 -0.5898453 145.35405
6126600000 -0.63081157 138.80322 -62.774708 6.623312 -62.74099 6.2239065 -0.80987507 144.99692
6135595000 -0.62585998 137.91115 -62.766983 9.8279037 -62.871307 9.3611231 -1.0574698 144.10266
6144590000 -0.62599301 137.05249 -62.195282 11.818456 -62.337479 11.485859 -1.1645106 142.5415
6153585000 -0.63169438 136.1526 -61.765812 11.368876 -61.868393 11.505138 -1.0506963 140.80232
6162580000 -0.63574159 135.24426 -61.367908 10.468336 -61.531769 11.020892 -0.80170411 139.483
6171575000 -0.6381585 134.34059 -61.075493 9.4586248 -61.212749 9.8240747 -0.58693033 138.75975
6180570000 -0.64054793 133.39688 -60.776978 8.7644787 -60.912457 9.2104321 -0.54516959 138.51524
6189565000 -0.63870841 132.4548 -60.434555 7.6576676 -60.543652 8.4709625 -0.69746935 138.42899
6198560000 -0.63501465 131.56342 -60.231144 6.7930665 -60.339405 7.5942698 -0.95664835 137.97687
6207555000 -0.63886642 130.6759 -59.921776 6.7196918 -60.053795 8.2962084 -1.1509775 136.76204
6216550000 -0.64375341 129.76442 -59.448227 6.5070114 -59.511959 8.2147627 -1.1440216 134.99213
6225545000 -0.64747018 128.85696 -58.975552 5.5546288 -58.965351 6.9561095 -0.9430455 133.29752
6234540000 -0.65141547 127.94585 -58.446789 4.1418586 -58.444115 5.3060584 -0.69075042 132.12627
6243535000 -0.65240234 127.01443 -57.949429 1.7515835 -58.004406 2.9453552 -0.55240583 131.62636
6252530000 -0.64946973 126.07037 -57.631737 -0.43114293 -57.652248 0.87935191 -0.61330456 131.63496
6261525000 -0.64807057 125.19205 -57.250202 -2.407908 -57.235825 -0.66525084 -0.84092295 131.54659
6270520000 -0.64921182 124.29321 -56.930271 -3.8959887 -56.889774 -2.6163168 -1.0892446 130.80029
6279515000 -0.65220737 123.3727 -56.56385 -5.2077403 -56.502155 -4.5136194 -1.1907995 129.2749
6288510000 -0.65567344 122.47001 -56.13504 -7.3041444 -56.075871 -6.4123001 -1.0758505 127.38271
6297505000 -0.65757167 121.56128 -55.707443 -9.8387938 -55.657677 -9.2024555 -0.82695794 125.74483
6306500000 -0.66031504 120.62241 -55.348038 -12.757836 -55.298119 -12.44475 -0.61261773 124.86092
6315495000 -0.65681034 119.70542 -55.003044 -16.220776 -55.007744 -16.028809 -0.57005203 124.71801
6324490000 -0.65780717 118.83601 -54.786217 -19.090334 -54.799511 -18.830063 -0.72838938 124.83337
6333485000 -0.66163373 117.92351 -54.488583 -22.165592 -54.529808 -21.791962 -0.98234248 124.56905
6342480000 -0.66688079 117.00379 -54.23164 -25.000977 -54.263622 -24.513031 -1.1676568 123.48115
6351475000 -0.67036462 116.10149 -53.851654 -28.252302 -53.883816 -27.659565 -1.1628988 121.64593
6360470000 -0.67226684 115.16449 -53.483955 -32.60487 -53.523743 -32.038204 -0.96624225 119.65747
6369465000 -0.67128175 114.22818 -53.257439 -38.107395 -53.279152 -37.425129 -0.71377587 118.29474
6378460000 -0.66689372 113.33247 -53.236687 -43.176506 -53.295921 -42.090546 -0.57928288 117.80137
6387455000 -0.66474468 112.4761 -53.181892 -47.479511 -53.226738 -46.468925 -0.64433646 117.92308
6396450000 -0.66758621 111.58369 -53.259151 -52.017265 -53.248741 -50.523899 -0.8582027 118.0384
6405445000 -0.67170328 110.6771 -53.324078 -55.899418 -53.290569 -54.474155 -1.0896052 117.51932
6414440000 -0.67358369 109.77325 -53.418045 -59.747784 -53.337513 -58.630428 -1.1891667 116.0075
6423435000 -0.67609888 108.82796 -53.556007 -63.280479 -53.491497 -62.007885 -1.0798334 113.89996
6432430000 -0.67386663 107.88866 -53.711208 -66.853218 -53.60788 -65.730598 -0.83640325 112.07073
6441425000 -0.66691941 106.99895 -53.920399 -70.371269 -53.795219 -69.352898 -0.63461173 111.06595
6450420000 -0.66603154 106.11915 -54.192261 -73.757545 -54.015369 -72.872993 -0.59943515 110.90961
6459415000 -0.66803688 105.22367 -54.537228 -76.191322 -54.325962 -75.739288 -0.74038565 111.16756
6468410000 -0.67072314 104.30984 -54.854637 -77.891922 -54.638248 -78.018326 -0.96735471 111.12482
6477405000 -0.67125791 103.38971 -55.104 -79.419983 -54.918884 -79.743263 -1.1404868 110.12842
6486400000 -0.67479998 102.43067 -55.22192 -81.119095 -55.060295 -81.500275 -1.1328014 108.19479
6495395000 -0.66914803 101.50153 -55.449406 -82.995476 -55.298592 -83.768715 -0.94821221 106.0798
6504390000 -0.6625753 100.61623 -55.697464 -84.620277 -55.606503 -85.582664 -0.71936953 104.54801
6513385000 -0.66400868 99.740273 -55.901489 -86.169128 -55.847939 -86.785088 -0.59954327 103.94731
6522380000 -0.66599894 98.821609 -56.035934 -87.366493 -56.003773 -88.050476 -0.65322125 104.1246
6531375000 -0.66777062 97.904297 -56.15424 -89.183739 -56.135948 -89.417809 -0.84173924 104.40575
6540370000 -0.66868997 96.966507 -56.323338 -90.533363 -56.278267 -90.51606 -1.0471948 103.96764
6549365000 -0.66751856 96.00605 -56.379524 -91.580124 -56.320042 -91.80098 -1.1317871 102.47487
6558360000 -0.66205126 95.084465 -56.435188 -92.826988 -56.454731 -92.962502 -1.0359204 100.29978
6567355000 -0.65690309 94.204124 -56.493298 -93.655388 -56.503933 -93.872307 -0.82686394 98.277802
6576350000 -0.65937459 93.329689 -56.457047 -95.058907 -56.491962 -95.245743 -0.64850998 97.099464
6585345000 -0.66201872 92.404068 -56.449551 -96.634964 -56.527092 -96.390327 -0.60949653 96.937294
6594340000 -0.6636672 91.496635 -56.459969 -98.466667 -56.567844 -98.052826 -0.72937155 97.29184
6603335000 -0.66576207 90.538773 -56.544033 -99.816628 -56.640553 -99.202415 -0.92590195 97.354103
6612330000 -0.66414678 89.571327 -56.614704 -100.87975 -56.680347 -100.0809 -1.0739775 96.469795
6621325000 -0.65671611 88.65181 -56.573418 -102.08622 -56.633942 -101.36516 -1.072767 94.593346
6630320000 -0.65180492 87.765678 -56.706486 -103.46082 -56.766094 -103.07275 -0.92098475 92.323395
6639315000 -0.65295738 86.878403 -56.839687 -104.49339 -56.889893 -104.07395 -0.7222901 90.593536
6648310000 -0.6563018 85.971329 -56.953762 -105.17233 -57.037094 -104.72471 -0.61032706 89.934036
6657305000 -0.6588856 85.062431 -56.983208 -105.99475 -57.049522 -105.36414 -0.65254128 90.124344
6666300000 -0.65899885 84.106461 -57.043232 -107.75825 -57.123722 -106.77218 -0.81027716 90.455231
6675295000 -0.65563071 83.135262 -57.220772 -109.1025 -57.226303 -108.20699 -0.98250765 90.151535
6684290000 -0.64893675 82.20282 -57.385563 -109.94676 -57.366341 -109.08179 -1.0639547 88.75
6693285000 -0.64633453 81.30146 -57.393135 -110.41719 -57.392563 -109.5738 -0.99368578 86.487083
6702280000 -0.64646459 80.395226 -57.457649 -111.72199 -57.451286 -110.92113 -0.81299078 84.293793
6711275000 -0.64671516 79.472008 -57.50848 -113.33799 -57.473984 -112.35432 -0.65142447 83.034645
6720270000 -0.6491105 78.565422 -57.616135 -115.08279 -57.5527 -113.70337 -0.61401743 82.827271
6729265000 -0.65056592 77.613052 -57.701294 -115.97451 -57.514046 -114.6062 -0.7057972 83.20713
6738260000 -0.64629906 76.655151 -57.640327 -116.74615 -57.402073 -115.86371 -0.86953461 83.397331
6747255000 -0.63990355 75.726791 -57.45575 -118.4086 -57.239014 -118.28642 -1.0052774 82.58828
6756250000 -0.63649201 74.814713 -57.505341 -120.71037 -57.328941 -120.66939 -1.019412 80.652008
6765245000 -0.63892734 73.889641 -57.556091 -122.57157 -57.391743 -122.52203 -0.89163625 78.276398
6774240000 -0.63746113 72.960152 -57.642857 -124.48714 -57.492195 -124.14437 -0.71916544 76.45034
6783235000 -0.63762182 72.043365 -57.834961 -125.72043 -57.702579 -125.02106 -0.61684531 75.683151
6792230000 -0.63790184 71.092438 -58.002655 -125.13982 -57.818874 -124.90507 -0.63780797 75.87252
6801225000 -0.63526005 70.140602 -57.868389 -124.85246 -57.676601 -124.98891 -0.76592356 76.315666
6810220000 -0.62939149 69.222664 -57.732063 -125.35602 -57.609959 -125.72225 -0.91913486 76.097153
6819215000 -0.62774813 68.30719 -57.603645 -126.54243 -57.525452 -126.77834 -0.99908316 74.671593
6828210000 -0.62750047 67.36776 -57.643768 -128.06818 -57.541729 -128.52869 -0.94420421 72.380875
6837205000 -0.62671632 66.430954 -57.792587 -129.37355 -57.712597 -129.8235 -0.79224032 70.15287
6846200000 -0.62652642 65.493248 -57.994778 -130.06464 -57.929092 -130.65929 -0.65260237 68.794136
6855195000 -0.62535262 64.535797 -58.215801 -130.00874 -58.214508 -130.61215 -0.60769159 68.574654
6864190000 -0.62112957 63.584465 -58.324329 -129.39397 -58.336971 -129.98262 -0.67900831 68.997612
6873185000 -0.61721057 62.660137 -58.255966 -128.58162 -58.272648 -129.37439 -0.82161969 69.189034
6882180000 -0.61471373 61.738785 -58.026905 -128.70892 -58.12299 -129.36813 -0.94170094 68.357727
6891175000 -0.61501253 60.79023 -57.856602 -130.76015 -57.989258 -130.7556 -0.95685452 66.416267
6900170000 -0.61292773 59.855053 -57.849121 -132.75159 -57.86182 -132.44499 -0.85537499 64.021881
6909165000 -0.61204547 58.902344 -57.819164 -135.2189 -57.809505 -134.96854 -0.70575672 62.135227
6918160000 -0.61061275 57.943363 -57.893303 -137.36093 -57.848476 -137.19635 -0.60935146 61.401276
6927155000 -0.60649782 56.99099 -58.073452 -139.92337 -58.01825 -139.72758 -0.62190586 61.624462
6936150000 -0.60184258 56.073803 -58.270153 -140.44987 -58.202423 -140.63316 -0.7311675 62.02634
6945145000 -0.59957451 55.126465 -58.273777 -140.45566 -58.124176 -140.64192 -0.86295772 61.737274
6954140000 -0.59892315 54.181423 -58.031693 -141.03868 -57.961361 -141.56535 -0.93357265 60.311413
6963135000 -0.59697789 53.234783 -57.820538 -142.88138 -57.795158 -143.23172 -0.8942377 58.010334
6972130000 -0.59541833 52.281368 -57.726746 -144.55135 -57.691525 -144.94868 -0.76604891 55.757145
6981125000 -0.59306276 51.319832 -57.637405 -146.65424 -57.635708 -146.98677 -0.63772285 54.440804
6990120000 -0.58754224 50.38361 -57.643631 -148.0535 -57.714802 -148.37918 -0.59633404 54.244186
6999115000 -0.58563322 49.457771 -57.66016 -148.5918 -57.733788 -148.76155 -0.65671098 54.63269
7008110000 -0.58494514 48.517727 -57.513336 -149.21272 -57.569614 -148.86694 -0.77623564 54.755634
7017105000 -0.58360219 47.557617 -57.352077 -150.50316 -57.413227 -150.19957 -0.88135093 53.905483
7026100000 -0.5825482 46.595093 -57.180706 -152.11736 -57.243912 -151.60873 -0.90036184 51.947529
7035095000 -0.58145809 45.619717 -57.163673 -154.62715 -57.178333 -154.11969 -0.81630021 49.561272
7044090000 -0.5784272 44.660774 -57.294769 -157.08661 -57.319885 -156.51677 -0.68492585 47.738819
7053085000 -0.57320613 43.717182 -57.605412 -158.88152 -57.610691 -158.16319 -0.59815001 46.996471
7062080000 -0.56960011 42.778561 -57.851902 -158.84532 -57.83728 -158.13341 -0.6065532 47.146538
7071075000 -0.56840116 41.826973 -57.879063 -159.11185 -57.889957 -158.18706 -0.69267523 47.466122
7080070000 -0.56622714 40.857246 -57.899719 -160.1474 -57.858803 -159.1929 -0.80461359 47.121902
7089065000 -0.56456596 39.885693 -57.9016 -161.71637 -57.864414 -160.67101 -0.87057835 45.671295
7098060000 -0.56252468 38.906445 -57.934708 -163.68983 -57.861366 -162.54945 -0.83934647 43.402405
7107055000 -0.5584662 37.933628 -58.11198 -165.18858 -57.947971 -164.26428 -0.73211354 41.238895
7116050000 -0.55397773 36.980762 -58.16452 -166.62126 -57.985657 -165.84077 -0.62514186 39.940952
7125045000 -0.55077755 36.028347 -58.273003 -167.97336 -58.08868 -167.76289 -0.58417457 39.679733
7134040000 -0.54880708 35.074409 -58.382053 -168.85193 -58.228504 -169.1123 -0.62822855 39.979206
7143035000 -0.54717308 34.109169 -58.363613 -169.855 -58.2038 -169.85464 -0.72470456 40.009029
7152030000 -0.54576248 33.134186 -58.321972 -170.4929 -58.218098 -171.06844 -0.81694037 39.093967
7161025000 -0.54405451 32.137531 -58.223824 -170.68936 -58.148243 -171.45808 -0.836429 37.17606
7170020000 -0.53864777 31.165514 -58.007019 -171.73122 -57.955025 -171.94814 -0.76996809 34.886803
7179015000 -0.53315848 30.190916 -57.692291 -172.55434 -57.643795 -172.99971 -0.66471905 33.106831
7188010000 -0.53129631 29.226871 -57.417286 -175.39711 -57.332542 -175.65274 -0.58782679 32.353176
7197005000 -0.52768427 28.257845 -57.375488 -178.47847 -57.364811 -178.94766 -0.58700085 32.437809
7206000000 -0.52722335 27.285378 -57.507648 179.06038 -57.448475 178.67061 -0.65544283 32.639877
7214995000 -0.52549255 26.295847 -57.760883 177.45264 -57.695084 176.87077 -0.75079232 32.197468
7223990000 -0.52163488 25.298418 -57.86208 177.41451 -57.848213 176.64284 -0.8080582 30.740654
7232985000 -0.51940626 24.315542 -57.807632 176.58978 -57.867775 176.21237 -0.78971291 28.544054
7241980000 -0.51502764 23.331263 -57.861519 175.41302 -57.88966 175.52484 -0.70351344 26.430328
7250975000 -0.51130706 22.35203 -57.865776 173.59868 -57.808846 173.64268 -0.60919571 25.158829
7259970000 -0.50965917 21.36418 -58.115555 172.11781 -58.048294 171.53998 -0.565934 24.867537
7268965000 -0.50756615 20.37892 -58.348415 170.96643 -58.328709 170.5912 -0.59633642 25.076368
7277960000 -0.50379121 19.380728 -58.577332 171.1442 -58.625008 170.42674 -0.67781842 25.001776
7286955000 -0.50130415 18.369385 -58.5937 171.48267 -58.641609 170.81689 -0.75758082 24.031605
7295950000 -0.49625355 17.379789 -58.355412 170.43858 -58.52705 170.31987 -0.78545332 22.126455
7304945000 -0.4935289 16.386538 -58.275284 168.4637 -58.368118 168.91222 -0.73418278 19.875435
7313940000 -0.49092248 15.39025 -58.296844 165.69199 -58.379566 165.8851 -0.6431632 18.121672
7322935000 -0.48719847 14.399762 -58.56451 164.3623 -58.658516 164.63676 -0.56875169 17.357168
7331930000 -0.48521236 13.400146 -58.664684 164.09937 -58.786961 164.26566 -0.55839109 17.362032
7340925000 -0.48212609 12.389771 -58.66806 163.95058 -58.822033 164.06842 -0.6112355 17.478291
7349920000 -0.47940913 11.377838 -58.531067 163.37726 -58.675209 163.77521 -0.6934787 16.975006
7358915000 -0.47662219 10.35759 -58.387272 161.74474 -58.50256 162.5659 -0.75295448 15.493289
7367910000 -0.47275344 9.347558 -58.421562 160.94313 -58.513851 161.4278 -0.74509043 13.33455
7376905000 -0.46967083 8.3360977 -58.506664 160.9653 -58.601917 161.74411 -0.67480117 11.272799
7385900000 -0.46591255 7.3278933 -58.200005 162.28552 -58.272694 163.3607 -0.58940971 10.001573
7394895000 -0.46328202 6.3191547 -57.777683 160.67564 -57.834724 161.69775 -0.54541439 9.6556406
7403890000 -0.46104023 5.3008618 -57.622112 157.99428 -57.624119 158.8791 -0.56484658 9.7522163
7412885000 -0.45935029 4.2798619 -57.669762 155.86449 -57.626194 156.8389 -0.63327664 9.5709038
7421880000 -0.45589995 3.2458601 -57.680851 154.50121 -57.641273 155.62378 -0.7056964 8.5516853
7430875000 -0.45323697 2.2176354 -57.67083 152.63998 -57.585751 153.96008 -0.73417479 6.6695724
7439870000 -0.44895378 1.1920862 -57.719028 151.10834 -57.60358 152.15697 -0.69647676 4.5047517
7448865000 -0.44532353 0.169908 -57.734856 149.37343 -57.621235 150.28929 -0.61717981 2.8355484
7457860000 -0.44141832 -0.84524584 -57.867966 147.48589 -57.765739 148.35039 -0.54895455 2.0672107
7466855000 -0.43893433 -1.8633937 -57.943592 145.49178 -57.839657 146.94186 -0.53336829 1.9878051
7475850000 -0.43708435 -2.892925 -58.091881 144.21515 -58.016487 145.21982 -0.57661945 1.9613868
7484845000 -0.43575314 -3.9398308 -58.250637 142.12343 -58.260773 143.49182 -0.65031606 1.3246001
7493840000 -0.43308845 -4.9956055 -58.400211 141.53354 -58.354275 142.72736 -0.70462126 -0.20127337
7502835000 -0.42865393 -6.0617065 -58.52248 140.19778 -58.449669 141.64003 -0.70163983 -2.3132901
7511830000 -0.42440403 -7.1094651 -58.484337 139.60269 -58.406746 141.42856 -0.64298517 -4.2730842
7520825000 -0.41993558 -8.1431074 -58.467636 137.90694 -58.362385 139.55765 -0.56496835 -5.4819784
7529820000 -0.416109 -9.1674728 -58.602242 136.48921 -58.467136 137.60219 -0.52117199 -5.8544106
7538815000 -0.41437209 -10.192813 -58.703148 135.90509 -58.533394 136.75528 -0.53550982 -5.8753471
7547810000 -0.41395834 -11.242538 -58.748711 134.90677 -58.6101 135.87227 -0.59230351 -6.2036333
7556805000 -0.41117382 -12.319076 -58.76466 134.36671 -58.56076 135.4052 -0.65936613 -7.3401527
7565800000 -0.40908021 -13.401283 -58.785397 133.60596 -58.517925 134.69821 -0.6884973 -9.2148619
7574795000 -0.40462977 -14.483239 -58.884251 133.4879 -58.44014 134.35262 -0.65866715 -11.298787
7583790000 -0.40022844 -15.545149 -58.817688 134.39253 -58.24588 134.041 -0.59039891 -12.886901
7592785000 -0.39791965 -16.602718 -58.619671 134.07607 -58.066696 132.44604 -0.52910304 -13.664993
7601780000 -0.39744961 -17.660357 -58.493153 132.53532 -58.030437 130.34428 -0.51021838 -13.84482
7610775000 -0.39537677 -18.735493 -58.533794 132.14523 -58.088718 129.46733 -0.54505104 -14.012287
7619770000 -0.39287505 -19.818117 -58.341557 131.70726 -57.983974 128.24973 -0.60905898 -14.775761
7628765000 -0.39101681 -20.918457 -58.185406 129.689 -57.974556 126.30242 -0.65962076 -16.341238
7637760000 -0.38693205 -22.01758 -58.20565 127.67998 -58.091759 124.27724 -0.66232562 -18.387836
7646755000 -0.38210395 -23.097837 -58.327251 126.48504 -58.352638 123.63167 -0.61519152 -20.253405
7655750000 -0.37943584 -24.169971 -58.266361 125.64069 -58.366337 123.46722 -0.54819262 -21.425108
7664745000 -0.37830573 -25.255632 -58.165318 124.84612 -58.290668 123.45362 -0.50532961 -21.882238
7673740000 -0.37765226 -26.352165 -58.065369 122.83556 -58.202244 121.76405 -0.50970054 -22.052895
7682735000 -0.37565914 -27.461418 -58.12825 121.37666 -58.173958 120.89525 -0.55830723 -22.551569
7691730000 -0.3733772 -28.575027 -58.139156 120.32902 -58.189678 119.91715 -0.61652875 -23.769968
7700725000 -0.36906239 -29.690334 -58.004101 120.27319 -58.031723 119.27831 -0.64789808 -25.622208
7709720000 -0.36510068 -30.787174 -57.680977 118.63428 -57.893181 117.72227 -0.63075024 -27.620575
7718715000 -0.36272916 -31.887571 -57.57169 117.09279 -57.816444 116.53766 -0.57538038 -29.150896
7727710000 -0.36282119 -32.999039 -57.365746 115.83194 -57.640606 116.11229 -0.51755494 -29.94496
7736705000 -0.3626577 -34.115253 -57.112545 113.54698 -57.324409 114.05135 -0.49471059 -30.24625
7745700000 -0.35997954 -35.238564 -57.0047 111.61379 -57.180859 112.14404 -0.51864576 -30.598719
7754695000 -0.35761955 -36.380257 -56.934929 108.87585 -57.043495 109.57147 -0.57347256 -31.494864
7763690000 -0.35362503 -37.516384 -57.068317 106.91714 -57.136124 107.62811 -0.62247378 -33.079552
7772685000 -0.34941646 -38.644108 -57.116116 107.10732 -57.193455 107.51086 -0.63416833 -35.064854
7781680000 -0.35092661 -39.772388 -56.991405 106.37944 -56.978062 107.06265 -0.59605372 -36.855934
7790675000 -0.35109895 -40.911747 -56.918652 104.97589 -56.802006 105.46239 -0.53635061 -37.998013
7799670000 -0.3488425 -42.054226 -56.822853 104.19648 -56.719006 104.06028 -0.4949061 -38.52689
7808665000 -0.34686029 -43.205128 -56.720604 102.49966 -56.566658 102.18085 -0.49236438 -38.866325
7817660000 -0.34459597 -44.374187 -56.715195 101.67731 -56.571255 101.23668 -0.53145546 -39.530479
7826655000 -0.33985919 -45.527 -56.57835 100.60807 -56.451382 99.791382 -0.58907527 -40.851254
7835650000 -0.33963189 -46.680889 -56.469677 98.750092 -56.379372 98.049629 -0.62430876 -42.727985
7844645000 -0.34171832 -47.849255 -56.318157 96.907654 -56.278419 96.523331 -0.61158442 -44.661598
7853640000 -0.34178862 -49.020824 -56.231102 94.907509 -56.137581 94.750961 -0.56038713 -46.120602
7862635000 -0.34058371 -50.206257 -56.193913 93.407898 -56.090824 93.376152 -0.50508356 -46.941368
7871630000 -0.33980712 -51.400337 -55.992775 92.818771 -55.936382 92.534645 -0.47909087 -47.364182
7880625000 -0.33540609 -52.580967 -55.626827 90.616936 -55.594379 90.485817 -0.4958711 -47.86446
7889620000 -0.33247197 -53.750446 -55.417328 88.088364 -55.4174 88.041161 -0.5505451 -48.9016
7898615000 -0.33278552 -54.931881 -55.202835 85.264359 -55.22411 85.020569 -0.60243493 -50.583664
7907610000 -0.33485636 -56.141319 -55.151875 82.254494 -55.215904 82.489723 -0.61680055 -52.544716
7916605000 -0.3367956 -57.347443 -55.168789 80.528893 -55.190075 80.630264 -0.58513147 -54.255898
7925600000 -0.33492625 -58.559448 -55.138805 79.487465 -55.128414 79.733383 -0.53002334 -55.407864
7934595000 -0.33294734 -59.785316 -54.940781 78.984795 -54.830273 78.662819 -0.48468614 -56.002846
7943590000 -0.32933426 -60.990208 -54.688839 77.738716 -54.572441 76.717819 -0.47827494 -56.468002
7952585000 -0.32576379 -62.179592 -54.361141 76.021294 -54.350285 74.653862 -0.52010417 -57.311142
7961580000 -0.32858396 -63.38229 -54.181744 72.524055 -54.18676 71.337143 -0.57676458 -58.764538
7970575000 -0.33358124 -64.609222 -54.327847 69.822426 -54.266628 68.381378 -0.6112957 -60.644043
7979570000 -0.33502552 -65.855583 -54.419834 68.890572 -54.343204 67.266106 -0.60299224 -62.508232
7988565000 -0.33676288 -67.119011 -54.271343 67.94561 -54.220062 66.093712 -0.55771029 -63.926453
7997560000 -0.33522937 -68.40303 -54.162994 66.25174 -54.114826 64.412514 -0.5029009 -64.76899
8006555000 -0.33169457 -69.658432 -53.98624 64.699944 -53.93956 62.625732 -0.47992659 -65.311249
8015550000 -0.32919824 -70.883858 -53.821846 62.923229 -53.814419 60.696804 -0.50130558 -66.025848
8024545000 -0.33022013 -72.126297 -53.620346 60.589413 -53.695061 58.416328 -0.55241024 -67.279472
8033540000 -0.33407772 -73.401604 -53.445683 57.713432 -53.633202 55.799149 -0.59795874 -69.039688
8042535000 -0.33650777 -74.679619 -53.331451 55.48278 -53.532791 53.830055 -0.61302078 -70.966339
8051530000 -0.33852804 -75.987038 -53.102249 53.166813 -53.371639 51.604507 -0.58289188 -72.624062
8060525000 -0.33861873 -77.281868 -52.956486 49.585606 -53.284512 48.868797 -0.52962589 -73.739067
8069520000 -0.33453399 -78.568626 -52.813965 47.641006 -53.138958 47.363689 -0.48959985 -74.426964
8078515000 -0.33379844 -79.831291 -52.641216 45.221355 -52.934357 45.265667 -0.49107927 -75.118172
8087510000 -0.33942643 -81.121437 -52.368877 43.62495 -52.650063 43.863018 -0.52766907 -76.186066
8096505000 -0.34549868 -82.432114 -52.020222 41.049252 -52.319252 41.618988 -0.57823825 -77.764839
8105500000 -0.3500469 -83.770462 -51.752922 37.776085 -52.026535 38.561165 -0.61260939 -79.661629
8114495000 -0.35416561 -85.126343 -51.580173 34.756901 -51.822971 35.792187 -0.60407734 -81.457657
8123490000 -0.35299435 -86.486351 -51.482895 32.190224 -51.645958 33.102272 -0.56151825 -82.810631
8132485000 -0.35058594 -87.804863 -51.288567 29.86911 -51.448311 30.79801 -0.51838589 -83.70993
8141480000 -0.34970373 -89.115166 -51.152946 27.60162 -51.298553 28.599962 -0.50212675 -84.459633
8150475000 -0.35664207 -90.458084 -50.971203 25.571627 -51.076084 26.733366 -0.51930416 -85.43074
8159470000 -0.36397037 -91.810501 -50.777462 22.882277 -50.800358 24.028259 -0.56482893 -86.850075
8168465000 -0.3706947 -93.200287 -50.678112 20.007799 -50.669209 20.899 -0.60755223 -88.662926
8177460000 -0.37510681 -94.602699 -50.610878 17.491693 -50.588249 18.040236 -0.61747998 -90.526627
8186455000 -0.37362519 -96.012764 -50.556496 15.198358 -50.554077 15.719007 -0.59165204 -92.076126
8195450000 -0.3725166 -97.397537 -50.505798 13.009081 -50.526718 13.665124 -0.55480534 -93.197502
8204445000 -0.37698054 -98.767479 -50.361355 11.068593 -50.378101 11.884014 -0.52858055 -94.080299
8213440000 -0.38296703 -100.15514 -50.242962 9.2518396 -50.193829 10.201878 -0.52765298 -95.038933
8222435000 -0.39024165 -101.55719 -49.975925 7.2003994 -49.908756 8.0811815 -0.56088847 -96.36335
8231430000 -0.39678445 -102.98763 -49.693981 4.6199994 -49.61869 5.4563274 -0.60522163 -98.091301
8240425000 -0.40332833 -104.45185 -49.487587 1.7383565 -49.367916 2.4195449 -0.62797731 -99.969032
8249420000 -0.40206251 -105.89023 -49.237518 -0.77599794 -49.13784 -0.10935877 -0.62045527 -101.66634
8258415000 -0.40428939 -107.32301 -49.040249 -3.6119816 -48.89682 -3.3499987 -0.59213382 -102.98331
8267410000 -0.40997681 -108.74639 -48.818676 -5.7344785 -48.681984 -5.7282915 -0.5626511 -104.01764
8276405000 -0.41984805 -110.19212 -48.529537 -8.1983366 -48.409023 -8.3140697 -0.54971451 -105.02815
8285400000 -0.42767063 -111.67201 -48.266865 -10.391699 -48.130402 -10.704466 -0.56930709 -106.28091
8294395000 -0.43531874 -113.17337 -47.949947 -12.614959 -47.807457 -13.455151 -0.60773504 -107.93241
8303390000 -0.44174904 -114.68539 -47.688103 -14.996712 -47.587425 -16.101391 -0.63996297 -109.80338
8312385000 -0.44449472 -116.19055 -47.410713 -17.122389 -47.348572 -18.363508 -0.65039271 -111.59702
8321380000 -0.44840354 -117.6871 -47.149273 -19.662521 -47.143314 -21.082561 -0.63621002 -113.0884
8330375000 -0.45644423 -119.16835 -46.911789 -21.462231 -46.93005 -22.938246 -0.60687703 -114.27921
8339370000 -0.46721184 -120.70026 -46.548187 -23.854763 -46.643059 -25.295706 -0.58669889 -115.3634
8348365000 -0.47796747 -122.2557 -46.276554 -26.95789 -46.423031 -28.1735 -0.59347677 -116.6135
8357360000 -0.48527169 -123.82863 -46.123192 -29.344635 -46.265984 -30.144855 -0.62562823 -118.19871
8366355000 -0.49258617 -125.39766 -45.864391 -31.517174 -46.028343 -32.258575 -0.66262019 -120.05309
8375350000 -0.49808362 -126.9646 -45.606564 -34.155922 -45.83807 -34.645073 -0.68468344 -121.94839
8384345000 -0.50429302 -128.51537 -45.447731 -37.0121 -45.669018 -36.993732 -0.68150032 -123.61618
8393340000 -0.51433343 -130.07021 -45.28059 -39.278435 -45.487801 -38.960377 -0.65768611 -124.97906
8402335000 -0.52902585 -131.65851 -45.105587 -41.551487 -45.288937 -40.799263 -0.63513839 -126.15074
8411330000 -0.53964126 -133.282 -44.866562 -43.829273 -45.029587 -42.937862 -0.63382536 -127.43291
8420325000 -0.55030829 -134.92262 -44.625725 -45.980606 -44.721619 -44.915211 -0.656829 -128.99287
8429320000 -0.55701721 -136.57799 -44.35067 -47.967247 -44.4063 -47.028458 -0.69420701 -130.86446
8438315000 -0.56527233 -138.21324 -44.007874 -50.114365 -44.049553 -49.25264 -0.72465014 -132.82854
8447310000 -0.57532042 -139.83342 -43.728546 -52.673836 -43.7603 -51.957211 -0.72972679 -134.63884
8456305000 -0.58777285 -141.46718 -43.500317 -55.020679 -43.521801 -54.335606 -0.71220034 -136.14061
8465300000 -0.60347527 -143.13805 -43.26046 -56.967323 -43.257813 -56.251873 -0.68997204 -137.41801
8474295000 -0.61539489 -144.84404 -42.985832 -58.883354 -42.97113 -58.237404 -0.6829024 -138.71521
8483290000 -0.62968868 -146.56924 -42.650024 -60.431751 -42.644321 -60.113228 -0.70193613 -140.2608
8492285000 -0.6408332 -148.31392 -42.189747 -62.146492 -42.218483 -61.935734 -0.73962629 -142.13515
8501280000 -0.65231776 -150.04103 -41.798073 -64.49913 -41.770271 -64.632408 -0.77828485 -144.19115
8510275000 -0.6667425 -151.76588 -41.53801 -67.526947 -41.524803 -66.620865 -0.79311585 -146.17822
8519270000 -0.68190885 -153.48904 -41.290016 -69.236961 -41.25333 -69.239647 -0.78242612 -147.85966
8528265000 -0.69782197 -155.25929 -41.053116 -70.940651 -40.959362 -70.988701 -0.76179612 -149.29103
8537260000 -0.71560198 -157.0535 -40.691525 -72.633209 -40.627094 -72.77636 -0.7519756 -150.67181
8546255000 -0.72853142 -158.87329 -40.331593 -74.938461 -40.280712 -74.964592 -0.76690435 -152.23203
8555250000 -0.74267721 -160.67448 -39.946632 -77.117844 -39.88438 -77.256226 -0.80434626 -154.14244
8564245000 -0.75659281 -162.47397 -39.56601 -79.928917 -39.543682 -79.971138 -0.84598017 -156.27275
8573240000 -0.77410418 -164.28409 -39.285648 -82.634148 -39.259022 -82.861435 -0.86742234 -158.39201
8582235000 -0.79186785 -166.10426 -39.021118 -84.62146 -39.022194 -85.008026 -0.86078864 -160.2532
8591230000 -0.81200761 -167.98242 -38.794735 -86.768234 -38.777218 -86.861168 -0.8403616 -161.80965
8600225000 -0.83247674 -169.8674 -38.454311 -88.413635 -38.408779 -88.814751 -0.82603705 -163.23906
8609220000 -0.84841156 -171.77711 -38.076237 -90.47776 -38.053581 -91.054092 -0.84043759 -164.82809
8618215000 -0.86302686 -173.69119 -37.688477 -93.0522 -37.747402 -93.533501 -0.87960404 -166.74463
8627210000 -0.88145494 -175.61136 -37.337246 -95.546379 -37.40221 -95.866257 -0.92852783 -168.95648
8636205000 -0.90107912 -177.53415 -37.015137 -97.936424 -37.051968 -98.027374 -0.95938367 -171.23343
8645200000 -0.92127085 -179.47513 -36.686161 -100.0729 -36.743984 -100.23356 -0.96029675 -173.30914
8654195000 -0.94217396 178.54626 -36.333561 -102.14349 -36.37339 -102.08418 -0.93930745 -175.07733
8663190000 -0.96335459 176.53749 -35.961853 -104.05732 -36.010586 -104.09304 -0.92254704 -176.65178
8672185000 -0.98315978 174.51924 -35.59824 -106.37988 -35.633072 -106.36667 -0.93175972 -178.29111
8681180000 -1.0012521 172.49074 -35.255623 -108.69696 -35.290001 -108.6378 -0.97039002 179.78287
8690175000 -1.0216337 170.44745 -34.876259 -110.74308 -34.904007 -110.47697 -1.0209558 177.52303
8699170000 -1.0443931 168.39214 -34.485432 -112.94601 -34.503395 -112.91218 -1.0591662 175.10889
8708165000 -1.0704308 166.31343 -34.0994 -115.17415 -34.099438 -115.07305 -1.0703006 172.81743
8717160000 -1.0961752 164.21072 -33.71896 -117.41923 -33.734356 -117.39437 -1.0580709 170.83508
8726155000 -1.1209931 162.07767 -33.359211 -119.65852 -33.396229 -119.43168 -1.0424592 169.09422
8735150000 -1.1444615 159.93654 -32.997356 -121.63758 -32.979603 -121.68649 -1.0481529 167.35362
8744145000 -1.1679698 157.77589 -32.584064 -124.06298 -32.596798 -123.92912 -1.0848731 165.35052
8753140000 -1.1926912 155.60147 -32.189339 -126.34621 -32.218788 -126.33454 -1.1408501 163.00964
8762135000 -1.2186075 153.41374 -31.779585 -128.90778 -31.802818 -128.72044 -1.1894101 160.45306
8771130000 -1.245579 151.19041 -31.375351 -131.358 -31.391836 -131.31862 -1.2126656 157.94749
8780125000 -1.2747408 148.96075 -30.994936 -133.99753 -31.011503 -133.88904 -1.2061729 155.70743
8789120000 -1.3012451 146.71057 -30.630203 -136.6176 -30.628799 -136.35788 -1.1918447 153.7421
8798115000 -1.3264534 144.43571 -30.255615 -138.90889 -30.253119 -138.84 -1.1942316 151.84712
8807110000 -1.3536417 142.14207 -29.873404 -141.25374 -29.862478 -141.19354 -1.2260115 149.77638
8816105000 -1.3804104 139.81854 -29.470453 -143.76845 -29.478218 -143.69344 -1.2830179 147.38422
8825100000 -1.4085587 137.46265 -29.085709 -146.30162 -29.080658 -146.24323 -1.3408049 144.73233
8834095000 -1.4379023 135.09293 -28.682329 -148.81615 -28.688753 -148.81206 -1.376858 142.02791
8843090000 -1.4680792 132.70665 -28.291819 -151.38857 -28.296066 -151.27751 -1.3870615 139.5206
8852085000 -1.4968022 130.27753 -27.900909 -153.8448 -27.89382 -153.68726 -1.3806555 137.28496
8861080000 -1.5276726 127.83199 -27.503794 -156.15074 -27.491718 -156.14902 -1.3822916 135.17406
8870075000 -1.5590187 125.33366 -27.070074 -158.69257 -27.066164 -158.64207 -1.4083046 132.95996
8879070000 -1.590987 122.81772 -26.652124 -161.33746 -26.655701 -161.31804 -1.4614513 130.46417
8888065000 -1.6200576 120.28188 -26.259079 -163.98448 -26.255198 -163.95122 -1.5229381 127.69359
8897060000 -1.6513376 117.72105 -25.855404 -166.6637 -25.847218 -166.64389 -1.5696067 124.81234
8906055000 -1.6823461 115.13859 -25.463217 -169.46223 -25.455057 -169.3378 -1.5925081 122.05045
8915050000 -1.7160394 112.55147 -25.056858 -172.04019 -25.055 -171.90765 -1.597785 119.51706
8924045000 -1.7527292 109.93739 -24.649136 -174.72279 -24.640743 -174.55608 -1.6056845 117.11295
8933040000 -1.7892383 107.27419 -24.233324 -177.33627 -24.21244 -177.24141 -1.6334847 114.66618
8942035000 -1.8246907 104.56342 -23.812761 179.89931 -23.788729 -179.98688 -1.6880724 111.9977
8951030000 -1.860391 101.83119 -23.381413 177.12982 -23.36639 177.18477 -1.7511766 109.05728
8960025000 -1.8960276 99.057762 -22.962091 174.25563 -22.939131 174.32439 -1.804671 105.95799
8969020000 -1.9310859 96.280281 -22.552444 171.37425 -22.530422 171.40317 -1.8348576 102.922
8978015000 -1.9692578 93.467148 -22.126774 168.55536 -22.11084 168.54507 -1.8519577 100.06918
8987010000 -2.0106075 90.616196 -21.698883 165.62933 -21.678852 165.62199 -1.8696409 97.364601
8996005000 -2.0534225 87.709778 -21.255491 162.69443 -21.239294 162.66499 -1.9053293 94.668526
9005000000 -2.0935876 84.766106 -20.822107 159.67853 -20.810293 159.61572 -1.9670154 91.781517
9013995000 -2.130451 81.78582 -20.381807 156.69243 -20.375231 156.6404 -2.0335071 88.607391
9022990000 -2.1704657 78.772346 -19.947998 153.54033 -19.944729 153.52304 -2.0970323 85.228516
9031985000 -2.2102423 75.731499 -19.529819 150.4064 -19.522964 150.38765 -2.143085 81.871338
9040980000 -2.2552521 72.666992 -19.108582 147.24953 -19.100801 147.23866 -2.1728361 78.661301
9049975000 -2.3048398 69.539558 -18.674784 144.07565 -18.675756 144.06319 -2.2055299 75.639931
9058970000 -2.3540511 66.363594 -18.241341 140.86642 -18.240252 140.86076 -2.2542071 72.62854
9067965000 -2.4021361 63.134514 -17.792814 137.59315 -17.789963 137.61975 -2.3265517 69.42231
9076960000 -2.4498646 59.871067 -17.353838 134.19098 -17.350975 134.23206 -2.4100473 65.92025
9085955000 -2.4947116 56.563309 -16.927944 130.75229 -16.924677 130.80867 -2.4872301 62.216419
9094950000 -2.5486386 53.254757 -16.513247 127.29337 -16.509607 127.35184 -2.5443325 58.478306
9103945000 -2.6031082 49.883461 -16.100222 123.86623 -16.095232 123.89883 -2.5897889 54.916847
9112940000 -2.665997 46.438107 -15.683359 120.32078 -15.681533 120.34084 -2.6421905 51.550671
9121935000 -2.7245877 42.957836 -15.258122 116.83015 -15.256574 116.88384 -2.712981 48.186909
9130930000 -2.7871404 39.401539 -14.818236 113.23645 -14.811806 113.3104 -2.8098316 44.631248
9139925000 -2.8493357 35.795734 -14.378977 109.53696 -14.366954 109.60449 -2.925442 40.751194
9148920000 -2.9141197 32.161526 -13.956783 105.78452 -13.946743 105.82571 -3.0258343 36.633865
9157915000 -2.9887836 28.479391 -13.543928 102.01983 -13.532637 102.04086 -3.104233 32.455627
9166910000 -3.067034 24.72946 -13.136422 98.245003 -13.128329 98.214325 -3.1694615 28.422773
9175905000 -3.1556358 20.888767 -12.718685 94.397545 -12.717896 94.372177 -3.2486389 24.612352
9184900000 -3.2441576 16.98167 -12.302072 90.491745 -12.304867 90.498276 -3.3570366 20.862585
9193895000 -3.3390496 13.01191 -11.870921 86.519333 -11.871111 86.543648 -3.4940913 16.862755
9202890000 -3.4400403 9.0105047 -11.447858 82.407112 -11.445476 82.436493 -3.6487138 12.540578
9211885000 -3.5477769 4.9906764 -11.035008 78.263611 -11.035941 78.275192 -3.7854292 7.9445305
9220880000 -3.6642756 0.94373375 -10.633485 74.028023 -10.635313 74.045029 -3.9018996 3.3009748
9229875000 -3.7904284 -3.1810443 -10.250371 69.751595 -10.249735 69.784927 -4.010747 -1.1371562
9238870000 -3.9263499 -7.3654232 -9.8665638 65.474304 -9.8649187 65.502098 -4.1467032 -5.3711481
9247865000 -4.0720396 -11.647246 -9.4786634 61.077785 -9.4758911 61.130672 -4.3279176 -9.6114521
9256860000 -4.2312808 -15.938761 -9.0993586 56.589058 -9.0946903 56.623085 -4.5471492 -14.086719
9265855000 -4.3940649 -20.261904 -8.7281361 52.019085 -8.7213583 52.047573 -4.7743597 -18.925547
9274850000 -4.5666208 -24.626757 -8.3704109 47.40749 -8.3652096 47.419189 -4.9774256 -23.998106
9283845000 -4.7512937 -29.058119 -8.0284624 42.780453 -8.0218563 42.784859 -5.1488914 -29.022959
9292840000 -4.9545746 -33.559406 -7.6931758 38.12249 -7.6876578 38.11179 -5.3287373 -33.768612
9301835000 -5.1751938 -38.121349 -7.3644991 33.428852 -7.3603306 33.41188 -5.5585251 -38.24147
9310830000 -5.4133787 -42.711422 -7.043365 28.648767 -7.0426226 28.655869 -5.8489552 -42.71706
9319825000 -5.6636596 -47.301296 -6.7314367 23.829826 -6.7298565 23.835133 -6.1821828 -47.58638
9328820000 -5.9288626 -51.918438 -6.4282303 18.94832 -6.4300971 18.943487 -6.5200653 -52.870827
9337815000 -6.2093511 -56.523666 -6.1371717 14.004666 -6.139842 14.017316 -6.8169823 -58.346256
9346810000 -6.5079455 -61.094437 -5.8657179 9.01754 -5.8681273 9.0545664 -7.0781384 -63.620739
9355805000 -6.820734 -65.734306 -5.6074915 4.0256419 -5.6092305 4.0719409 -7.3611879 -68.470222
9364800000 -7.1585612 -70.445221 -5.3656015 -0.95598841 -5.3658147 -0.89606643 -7.7084618 -72.932053
9373795000 -7.5264854 -75.166382 -5.132585 -5.9520488 -5.1302762 -5.8794994 -8.1466122 -77.453209
9382790000 -7.9169049 -79.82222 -4.913332 -10.959249 -4.9096761 -10.911429 -8.6351833 -82.372887
9391785000 -8.3180876 -84.456703 -4.7020574 -15.969674 -4.6990943 -15.928483 -9.1062546 -87.752533
9400780000 -8.7453394 -89.006874 -4.5048628 -21.011543 -4.5016346 -20.971292 -9.5159559 -93.284843
9409775000 -9.1838341 -93.48896 -4.3268919 -26.050798 -4.3222857 -26.009827 -9.8859348 -98.401207
9418770000 -9.6416187 -97.999962 -4.1609116 -31.062075 -4.1575117 -31.014503 -10.275669 -102.81021
9427765000 -10.128282 -102.50822 -4.0090756 -36.043159 -4.0049238 -35.997528 -10.768019 -106.70157
9436760000 -10.655414 -106.9289 -3.8658504 -40.982368 -3.8611503 -40.943459 -11.369681 -110.63694
9445755000 -11.214321 -111.25396 -3.7319603 -45.932987 -3.725884 -45.886715 -12.02312 -115.10358
9454750000 -11.792161 -115.39647 -3.6062601 -50.851471 -3.6019256 -50.81773 -12.635385 -120.203
9463745000 -12.359593 -119.34858 -3.4938333 -55.73822 -3.4885666 -55.709869 -13.150221 -125.34454
9472740000 -12.922927 -123.28769 -3.3925509 -60.57835 -3.3889518 -60.551254 -13.582334 -129.74539
9481735000 -13.496073 -127.36441 -3.3021383 -65.384979 -3.2985022 -65.344589 -14.033092 -133.0768
9490730000 -14.117847 -131.54814 -3.2172446 -70.133514 -3.2124996 -70.092461 -14.617582 -135.66556
9499725000 -14.828389 -135.52644 -3.1376467 -74.86013 -3.1327608 -74.822556 -15.357992 -138.39963
9508720000 -15.579377 -139.22328 -3.0640471 -79.552269 -3.0583169 -79.518242 -16.165407 -141.92101
9517715000 -16.340023 -142.61388 -2.9934261 -84.197784 -2.9889932 -84.164795 -16.890574 -146.48412
9526710000 -17.069839 -145.83009 -2.9273703 -88.80201 -2.9234862 -88.773582 -17.438652 -151.32002
9535705000 -17.765411 -149.13562 -2.8699174 -93.389153 -2.8661885 -93.344429 -17.807549 -155.08221
9544700000 -18.476341 -152.64362 -2.8209097 -97.913048 -2.8174131 -97.873627 -18.18124 -157.0347
9553695000 -19.260445 -156.30649 -2.7772222 -102.38268 -2.7738745 -102.341 -18.698442 -157.75719
9562690000 -20.207464 -159.82027 -2.7336576 -106.82515 -2.7290089 -106.78154 -19.459988 -158.63785
9571685000 -21.292465 -162.6427 -2.6911151 -111.26061 -2.6868513 -111.22195 -20.374849 -160.66942
9580680000 -22.350657 -164.47101 -2.6505618 -115.67455 -2.6457074 -115.63371 -21.200054 -164.41472
9589675000 -23.303261 -166.13034 -2.6124458 -120.05123 -2.6094816 -120.00607 -21.692514 -169.00099
9598670000 -24.17049 -168.56569 -2.5800109 -124.38616 -2.5761008 -124.34223 -21.856945 -172.4169
9607665000 -25.167515 -172.02081 -2.5512276 -128.67435 -2.5476992 -128.63463 -21.92054 -173.41031
9616660000 -26.41411 -175.13857 -2.5263402 -132.92007 -2.5229359 -132.88696 -22.209183 -172.36388
9625655000 -27.976603 -177.45633 -2.5040867 -137.15242 -2.5011969 -137.1133 -22.824553 -170.97458
9634650000 -29.797606 -177.2215 -2.4807706 -141.362 -2.4777813 -141.32265 -23.761908 -170.94708
9643645000 -31.523672 -174.21204 -2.4555895 -145.56779 -2.453083 -145.52742 -24.71084 -174.30704
9652640000 -32.852982 -170.40347 -2.4315464 -149.76445 -2.4288237 -149.72461 -25.228165 179.64946
9661635000 -34.106434 -169.01683 -2.409903 -153.92273 -2.4090614 -153.88748 -25.109007 174.05849
9670630000 -36.04594 -168.52112 -2.3925254 -158.04527 -2.3904738 -157.99965 -24.703714 171.81805
9679625000 -39.355526 -164.15514 -2.376364 -162.12624 -2.3748662 -162.07198 -24.519032 172.87967
9688620000 -43.60947 -138.81612 -2.3625119 -166.17636 -2.3593471 -166.12703 -24.812386 175.3149
9697615000 -42.905491 -95.277122 -2.349102 -170.23613 -2.3462641 -170.18279 -25.63126 176.659
9706610000 -40.288586 -82.0467 -2.333791 -174.28641 -2.3294544 -174.24132 -26.695847 174.08055
9715605000 -38.987175 -79.027031 -2.3168168 -178.33792 -2.3126938 -178.27823 -27.454103 166.15607
9724600000 -38.681133 -75.699348 -2.3021829 177.63306 -2.2980847 177.68799 -27.365738 156.61839
9733595000 -37.877129 -68.057442 -2.2890794 173.6331 -2.2845385 173.68704 -26.679501 151.67598
9742590000 -36.117496 -60.418045 -2.2779331 169.67622 -2.273509 169.73021 -26.198696 151.6498
9751585000 -34.043415 -58.140778 -2.2687721 165.73502 -2.264555 165.79561 -26.272522 154.41415
9760580000 -32.538937 -60.164371 -2.2597735 161.80467 -2.2555506 161.86905 -27.085384 156.54732
9769575000 -31.870701 -62.623363 -2.2503161 157.86905 -2.2460794 157.92125 -28.445524 154.32364
9778570000 -31.845892 -63.530075 -2.240716 153.92355 -2.2363698 153.97659 -29.669123 144.70854
9787565000 -31.957466 -62.244354 -2.2303791 149.97806 -2.2260551 150.03308 -29.756769 130.79959
9796560000 -31.680229 -60.604092 -2.2203822 146.054 -2.2165842 146.11378 -28.843859 121.91006
9805555000 -30.960709 -60.248512 -2.214076 142.16975 -2.2087302 142.23331 -28.104992 121.05252
9814550000 -30.057402 -62.549301 -2.2073827 138.3129 -2.2033188 138.37062 -28.092287 123.71743
9823545000 -29.383284 -66.240944 -2.2025273 134.47273 -2.19823 134.52284 -28.987566 126.24014
9832540000 -29.110096 -68.862007 -2.197562 130.61436 -2.1934545 130.66609 -30.640251 123.81861
9841535000 -29.164148 -69.48632 -2.1920993 126.74458 -2.1881251 126.80166 -32.278534 111.15659
9850530000 -29.24159 -68.368668 -2.1853223 122.86187 -2.1828697 122.92813 -32.291328 92.439026
9859525000 -29.104448 -66.908714 -2.1794906 118.99512 -2.1757159 119.06132 -31.039801 82.473122
9868520000 -28.728249 -67.704857 -2.1743367 115.15545 -2.1685963 115.21912 -30.152319 82.256516
9877515000 -28.2558 -70.826889 -2.1689315 111.33826 -2.1632137 111.40331 -30.196756 86.180923
9886510000 -27.958857 -74.837631 -2.1648874 107.55183 -2.1601832 107.61571 -31.360657 89.334053
9895505000 -27.872803 -77.732803 -2.1614003 103.76114 -2.1571267 103.82593 -33.567726 85.517769
9904500000 -27.88718 -78.50032 -2.1591816 99.949295 -2.1555555 100.01328 -35.550282 66.923805
9913495000 -27.852844 -77.621758 -2.1566918 96.129639 -2.1524024 96.195885 -34.883408 43.052238
9922490000 -27.661312 -76.443649 -2.1541104 92.308357 -2.1491053 92.373299 -33.022812 34.420872
9931485000 -27.364883 -77.19381 -2.1503057 88.503242 -2.1459317 88.560814 -32.110867 35.914963
9940480000 -27.176147 -79.849983 -2.1459076 84.712296 -2.1420302 84.773956 -32.426178 40.196693
9949475000 -27.15707 -82.965233 -2.1431282 80.94381 -2.1397257 81.006012 -34.05003 41.848152
9958470000 -27.257673 -85.728973 -2.1423311 77.183006 -2.1392837 77.241158 -36.47427 31.416893
9967465000 -27.349108 -86.869888 -2.1431189 73.408951 -2.1393456 73.471924 -37.418873 4.3783154
9976460000 -27.294043 -86.91922 -2.1421819 69.621925 -2.139693 69.680481 -35.340645 -13.915151
9985455000 -27.068478 -86.821159 -2.1417809 65.830025 -2.1388936 65.891106 -33.507164 -16.398319
9994450000 -26.840366 -88.063683 -2.1412761 62.030495 -2.1381075 62.100258 -32.91827 -12.169354
10003445000 -26.720955 -90.398178 -2.139745 58.250217 -2.136157 58.317215 -33.700451 -7.6221113
10012440000 -26.802595 -93.431183 -2.1377466 54.486832 -2.1349947 54.551235 -35.683006 -8.3299112
10021435000 -27.021029 -95.797707 -2.137351 50.734352 -2.134145 50.797581 -37.904221 -23.710453
10030430000 -27.232109 -97.147453 -2.1384509 46.988033 -2.135694 47.042927 -37.660889 -49.661873
10039425000 -27.225025 -97.380913 -2.1399362 43.227524 -2.1375756 43.286114 -35.444225 -61.531441
10048420000 -27.062559 -97.803886 -2.1423419 39.451103 -2.1395586 39.506088 -34.042866 -61.015945
10057415000 -26.876289 -99.278847 -2.1426415 35.666115 -2.1399789 35.724628 -33.886349 -56.307278
10066410000 -26.887241 -101.65119 -2.1427348 31.885403 -2.1406798 31.947781 -35.06636 -52.690388
10075405000 -27.101076 -104.24889 -2.143553 28.111376 -2.1410604 28.172798 -37.275723 -56.96022
10084400000 -27.45863 -106.12819 -2.1446121 24.355644 -2.1416428 24.411049 -39.195107 -77.34108
10093395000 -27.743158 -106.92923 -2.1476357 20.59705 -2.1434166 20.656889 -38.102978 -100.07084
10102390000 -27.792004 -107.08685 -2.1501908 16.829592 -2.1483471 16.889626 -36.121891 -106.82616
10111385000 -27.721588 -107.88194 -2.1543226 13.050478 -2.151304 13.109746 -35.199677 -104.25061
10120380000 -27.599304 -109.67135 -2.1585679 9.2571144 -2.1538608 9.310277 -35.477989 -98.524956
10129375000 -27.719116 -112.30735 -2.1604905 5.4563365 -2.1576769 5.5133166 -37.042942 -94.825737
10138370000 -28.033676 -114.68327 -2.1622252 1.6546171 -2.1592944 1.7117978 -39.578701 -101.21426
10147365000 -28.493303 -115.8019 -2.1650884 -2.1325002 -2.1621723 -2.072541 -41.36145 -125.32724
10156360000 -28.818087 -115.73954 -2.1678975 -5.9020028 -2.1663833 -5.8580065 -40.008129 -146.76677
10165355000 -28.946142 -115.02939 -2.172842 -9.6903172 -2.1706355 -9.6324139 -38.309528 -151.17465
10174350000 -28.934898 -114.93652 -2.1777024 -13.481308 -2.1746378 -13.421608 -37.83136 -147.35078
10183345000 -29.054386 -115.98205 -2.1827576 -17.284328 -2.1793725 -17.229177 -38.656197 -141.67574
10192340000 -29.349899 -117.78495 -2.1876547 -21.105024 -2.1846895 -21.05138 -40.893269 -140.01251
10201335000 -29.833321 -119.708 -2.1917653 -24.93384 -2.1888638 -24.882235 -44.359013 -151.91675
10210330000 -30.348272 -120.17406 -2.1964934 -28.7605 -2.1935318 -28.705997 -45.593475 174.86504
10219325000 -30.666336 -119.51924 -2.2012577 -32.581299 -2.1989164 -32.526707 -43.594982 156.70836
10228320000 -30.689926 -118.12903 -2.208005 -36.397091 -2.2052217 -36.340649 -42.633221 156.53101
10237315000 -30.626873 -117.3157 -2.2141769 -40.228069 -2.2105923 -40.169613 -43.339745 162.53723
10246310000 -30.701006 -117.19209 -2.2214148 -44.064548 -2.2178397 -44.013287 -46.467773 165.19228
10255305000 -31.137707 -116.93745 -2.2295158 -47.926624 -2.2252047 -47.873604 -52.551891 140.36154
10264300000 -31.74682 -116.15543 -2.2354221 -51.806427 -2.2320924 -51.756626 -49.919254 78.815254
10273295000 -32.258045 -114.48391 -2.2420244 -55.690392 -2.2377815 -55.631275 -45.36224 67.065742
10282290000 -32.372787 -112.69598 -2.249171 -59.567966 -2.2455695 -59.516685 -43.835094 68.175621
10291285000 -32.153442 -111.32139 -2.257417 -63.448551 -2.2537348 -63.395405 -44.846161 68.174629
10300280000 -31.797985 -110.66927 -2.2658982 -67.337753 -2.2616658 -67.288704 -47.372932 57.237003
10309275000 -31.704561 -110.19688 -2.2757969 -71.239853 -2.2711139 -71.190987 -47.8214 20.252907
10318270000 -31.85408 -108.47712 -2.2861438 -75.163231 -2.2806482 -75.112228 -43.986774 0.92153192
10327265000 -32.136307 -105.44686 -2.2943718 -79.101402 -2.2891133 -79.048393 -40.917965 -0.58020747
10336260000 -32.28413 -102.10172 -2.3026588 -83.047462 -2.297332 -82.997185 -39.478855 0.013106086
10345255000 -32.159115 -99.880814 -2.3122098 -86.997108 -2.307533 -86.955696 -39.258934 -1.519161
10354250000 -31.75692 -99.881332 -2.3225753 -90.9599 -2.3178108 -90.910851 -39.830673 -8.5188532
10363245000 -31.335686 -100.50748 -2.3337224 -94.927086 -2.3290083 -94.872223 -39.850655 -22.315712
10372240000 -31.021288 -100.97049 -2.345026 -98.903 -2.3411078 -98.861755 -38.539448 -33.343319
10381235000 -30.819876 -100.35304 -2.3591819 -102.90513 -2.3550134 -102.87313 -36.974606 -37.751865
10390230000 -30.585217 -98.44593 -2.3701513 -106.94036 -2.3648531 -106.89411 -35.805058 -38.597641
10399225000 -30.313944 -96.43354 -2.3816569 -110.98423 -2.3767147 -110.94231 -35.363628 -39.038719
10408220000 -29.923906 -95.557564 -2.3945074 -115.04858 -2.3892365 -115.00857 -35.631279 -43.424343
10417215000 -29.555136 -96.293533 -2.4076831 -119.12553 -2.4011924 -119.08088 -35.850006 -53.088669
10426210000 -29.14851 -98.103874 -2.4214292 -123.20407 -2.416373 -123.1711 -35.259682 -64.728584
10435205000 -28.850569 -99.943375 -2.4374437 -127.30589 -2.4315448 -127.27068 -34.002899 -71.728401
10444200000 -28.518574 -100.71429 -2.4554133 -131.43787 -2.4492822 -131.39818 -32.774452 -73.411438
10453195000 -28.159449 -100.60609 -2.471554 -135.58966 -2.4676344 -135.55846 -31.99625 -73.651367
10462190000 -27.651798 -100.10323 -2.4872222 -139.76717 -2.4821534 -139.73648 -31.776499 -75.299759
10471185000 -27.081829 -100.48314 -2.5050333 -143.96799 -2.4985869 -143.94025 -31.896372 -80.613037
10480180000 -26.5634 -101.97782 -2.5212471 -148.18663 -2.5164864 -148.16219 -31.672787 -89.306641
10489175000 -26.117865 -104.32791 -2.5401094 -152.42299 -2.5353301 -152.40211 -30.803139 -97.6007
10498170000 -25.761024 -106.74529 -2.5619562 -156.69348 -2.5579615 -156.66374 -29.570396 -101.74472
10507165000 -25.431406 -108.78468 -2.5866377 -160.99329 -2.5819714 -160.96399 -28.525549 -102.95571
10516160000 -24.962021 -110.47219 -2.6102724 -165.32422 -2.6053379 -165.2998 -27.924509 -103.68991
10525155000 -24.340105 -112.17171 -2.6337998 -169.69107 -2.6296117 -169.6647 -27.669365 -105.93961
10534150000 -23.657431 -114.39013 -2.6589456 -174.09363 -2.6536689 -174.06596 -27.536131 -111.46396
10543145000 -23.006744 -117.27334 -2.6839151 -178.52263 -2.6792004 -178.50142 -26.996471 -119.24855
10552140000 -22.447655 -120.47686 -2.7113822 177.02162 -2.7070467 177.0397 -25.924625 -125.9798
10561135000 -21.972649 -123.64637 -2.7441504 172.52818 -2.7397997 172.55199 -24.650837 -129.78845
10570130000 -21.494026 -126.56555 -2.7807331 167.98718 -2.7768753 168.00737 -23.582701 -131.44421
10579125000 -20.91781 -129.46234 -2.8195376 163.39554 -2.8163638 163.40738 -22.855713 -132.64505
10588120000 -20.243553 -132.80858 -2.8607156 158.75925 -2.8570101 158.77858 -22.419271 -135.38553
10597115000 -19.520403 -136.67908 -2.9035075 154.08072 -2.8998432 154.09636 -22.010006 -140.35077
10606110000 -18.824942 -141.00014 -2.9473155 149.35788 -2.9436641 149.37227 -21.333529 -146.73372
10615105000 -18.202625 -145.45184 -2.9953036 144.58995 -2.991389 144.60051 -20.306719 -152.77451
10624100000 -17.621916 -149.74954 -3.0494273 139.77499 -3.0455685 139.78098 -19.171062 -156.9101
10633095000 -17.031757 -153.80121 -3.1123021 134.89072 -3.1085389 134.90796 -18.185225 -159.74522
10642090000 -16.391941 -157.966 -3.1852663 129.95262 -3.1810677 129.96439 -17.444391 -162.26213
10651085000 -15.710205 -162.42017 -3.2637603 124.95677 -3.2606988 124.97184 -16.911188 -165.84654
10660080000 -15.018535 -167.30354 -3.3481424 119.91232 -3.3434138 119.92204 -16.392843 -170.98637
10669075000 -14.378981 -172.45575 -3.4356301 114.8178 -3.4316626 114.82986 -15.690475 -177.25249
10678070000 -13.782041 -177.7305 -3.5287437 109.69801 -3.5263629 109.66823 -14.789873 176.76334
10687065000 -13.204167 177.05087 -3.6368849 104.47318 -3.6339016 104.44622 -13.831038 171.92825
10696060000 -12.605167 171.93993 -3.7614348 99.184807 -3.758599 99.157776 -12.980404 168.04053
10705055000 -11.973774 166.81189 -3.9057455 93.841499 -3.9031992 93.828911 -12.31518 164.3334
10714050000 -11.341548 161.47992 -4.0672092 88.483475 -4.0627999 88.460045 -11.796671 160.01706
10723045000 -10.736648 155.99763 -4.2388864 83.090698 -4.2347574 83.060326 -11.299553 154.64227
10732040000 -10.185295 150.35318 -4.4153705 77.657433 -4.4126058 77.632896 -10.710683 148.58937
10741035000 -9.6812973 144.72499 -4.6037183 72.167351 -4.6000099 72.145622 -10.005588 142.65236
10750030000 -9.1932421 139.12241 -4.8112903 66.643005 -4.8086572 66.613792 -9.2797222 137.40472
10759025000 -8.7045479 133.56734 -5.0486403 61.082176 -5.0454845 61.068447 -8.6465712 132.81436
10768020000 -8.2143364 127.99516 -5.3140173 55.568375 -5.3118258 55.52879 -8.1626844 128.41696
10777015000 -7.7363601 122.37593 -5.6048913 50.090588 -5.6021309 50.060825 -7.7891417 123.6304
10786010000 -7.2981234 116.75674 -5.9069529 44.660923 -5.9052763 44.625969 -7.4428592 118.15532
10795005000 -6.8998952 111.15823 -6.2171412 39.221878 -6.2159209 39.187424 -7.0279083 112.25368
10804000000 -6.5410361 105.65559 -6.5396643 33.768379 -6.5377564 33.735558 -6.5393372 106.45502
10812995000 -6.1996198 100.21354 -6.8825064 28.327347 -6.8800139 28.311096 -6.0419259 101.23438
10821990000 -5.8684273 94.8452 -7.2519431 22.957479 -7.2526622 22.937817 -5.6216655 96.610718
10830985000 -5.552978 89.545952 -7.6527395 17.728382 -7.6524525 17.701931 -5.3256502 92.25219
10839980000 -5.2582302 84.301544 -8.0741377 12.664413 -8.0726976 12.627831 -5.1191483 87.709854
10848975000 -4.9901237 79.133003 -8.5003557 7.7102652 -8.5001984 7.67733 -4.9355483 82.737595
10857970000 -4.7469883 74.077232 -8.9273958 2.7817886 -8.9284477 2.756283 -4.7006474 77.416061
10866965000 -4.52388 69.150917 -9.3634357 -2.1497536 -9.3642435 -2.1756146 -4.4019651 72.20137
10875960000 -4.3178325 64.346642 -9.8141737 -7.0565925 -9.8141384 -7.0723162 -4.0896025 67.452568
10884955000 -4.1219664 59.645004 -10.284852 -11.847266 -10.28592 -11.870508 -3.8357255 63.238598
10893950000 -3.9408848 55.067535 -10.769486 -16.41098 -10.77247 -16.443123 -3.672991 59.358047
10902945000 -3.772454 50.556503 -11.261475 -20.760384 -11.264391 -20.795746 -3.5817199 55.453823
10911940000 -3.6204586 46.146404 -11.750604 -24.990623 -11.75716 -25.010778 -3.5063844 51.218651
10920935000 -3.4796414 41.8522 -12.240712 -29.180969 -12.24436 -29.195679 -3.3852985 46.706238
10929930000 -3.3485408 37.681862 -12.730404 -33.394939 -12.737439 -33.38747 -3.2069209 42.237221
10938925000 -3.2249064 33.625351 -13.236447 -37.604168 -13.24069 -37.595936 -3.0110011 38.138016
10947920000 -3.1088047 29.699778 -13.749454 -41.687908 -13.75383 -41.708843 -2.8521762 34.489349
10956915000 -3.0053306 25.844944 -14.265307 -45.597015 -14.271514 -45.612309 -2.7604012 31.201729
10965910000 -2.9083121 22.062601 -14.777925 -49.300552 -14.783886 -49.299965 -2.7292364 27.952795
10974905000 -2.8144376 18.372751 -15.277847 -52.836304 -15.287889 -52.834064 -2.7129004 24.453836
10983900000 -2.7282875 14.763664 -15.77598 -56.355953 -15.784307 -56.350266 -2.6555266 20.660734
10992895000 -2.6459928 11.258906 -16.277309 -59.912563 -16.284304 -59.890507 -2.543447 16.860373
11001890000 -2.5661154 7.8610654 -16.790022 -63.45224 -16.796005 -63.468121 -2.409508 13.280785
11010885000 -2.4932127 4.5572271 -17.309568 -66.961449 -17.315931 -66.991409 -2.2973971 10.143076
11019880000 -2.4279335 1.3014805 -17.826656 -70.303841 -17.833626 -70.330627 -2.2410657 7.3533349
11028875000 -2.3642223 -1.9023814 -18.33131 -73.491669 -18.338081 -73.513115 -2.2377534 4.6198506
11037870000 -2.3041136 -5.0474114 -18.825876 -76.570305 -18.831297 -76.56002 -2.2508638 1.6569018
11046865000 -2.2431037 -8.121707 -19.304047 -79.556725 -19.311132 -79.577721 -2.2246914 -1.5923347
11055860000 -2.1844902 -11.101905 -19.791618 -82.582649 -19.794901 -82.597038 -2.1481547 -4.9102383
11064855000 -2.1288629 -13.989765 -20.285683 -85.638664 -20.291254 -85.668388 -2.0411494 -8.0382252
11073850000 -2.081943 -16.816145 -20.787542 -88.651093 -20.792072 -88.693726 -1.9488137 -10.764276
11082845000 -2.036144 -19.644081 -21.294579 -91.629631 -21.296373 -91.607094 -1.9083877 -13.117925
11091840000 -1.9918163 -22.402124 -21.785051 -94.440872 -21.789856 -94.402008 -1.9222113 -15.444043
11100835000 -1.9480069 -25.11788 -22.263838 -97.107063 -22.262594 -97.102478 -1.9518832 -17.978445
11109830000 -1.9028236 -27.799982 -22.721581 -99.7519 -22.721771 -99.774742 -1.9486989 -20.821482
11118825000 -1.8580556 -30.406305 -23.180874 -102.41705 -23.180763 -102.44107 -1.8951324 -23.794863
11127820000 -1.818513 -32.936993 -23.644981 -105.04784 -23.650095 -105.09377 -1.8014314 -26.624357
11136815000 -1.7822734 -35.444641 -24.128195 -107.69061 -24.129919 -107.79549 -1.7171068 -29.074947
11145810000 -1.7476567 -37.913403 -24.613863 -110.34899 -24.619568 -110.38741 -1.6805344 -31.124899
11154805000 -1.7114384 -40.343601 -25.095543 -112.88081 -25.092543 -112.87862 -1.6985614 -33.113411
11163800000 -1.675644 -42.741974 -25.553816 -115.32964 -25.55562 -115.30664 -1.7375321 -35.288105
11172795000 -1.6405593 -45.090893 -25.987816 -117.6339 -25.992409 -117.66177 -1.7551816 -37.772652
11181790000 -1.6072696 -47.387192 -26.421341 -119.99001 -26.420519 -120.05567 -1.7181251 -40.478065
11190785000 -1.5756888 -49.645172 -26.847521 -122.4386 -26.85899 -122.42554 -1.6365559 -43.090298
11199780000 -1.5484957 -51.892162 -27.307665 -124.81113 -27.312525 -124.77512 -1.5536761 -45.341972
11208775000 -1.5202236 -54.106098 -27.772495 -127.19118 -27.774643 -127.17705 -1.5110168 -47.196095
11217770000 -1.4915082 -56.279026 -28.229269 -129.44171 -28.245972 -129.38303 -1.5260799 -48.897774
11226765000 -1.463452 -58.437447 -28.680655 -131.57103 -28.684847 -131.57552 -1.5723556 -50.74015
11235760000 -1.436651 -60.552334 -29.107859 -133.74261 -29.10527 -133.73872 -1.6063669 -52.917404
11244755000 -1.4100932 -62.637493 -29.521534 -135.92421 -29.508892 -135.91643 -1.5934292 -55.39505
11253750000 -1.3855761 -64.705154 -29.923494 -138.15294 -29.931629 -138.13463 -1.5272664 -57.894386
11262745000 -1.362149 -66.754494 -30.351236 -140.3472 -30.357958 -140.3544 -1.4436944 -60.075291
11271740000 -1.3372272 -68.769928 -30.795033 -142.4792 -30.799341 -142.42564 -1.389721 -61.835003
11280735000 -1.3130126 -70.747009 -31.249996 -144.56229 -31.248917 -144.50296 -1.3909186 -63.338142
11289730000 -1.2904726 -72.699341 -31.678833 -146.47319 -31.671083 -146.53432 -1.4324797 -64.877525
11298725000 -1.2686567 -74.618454 -32.098957 -148.52094 -32.102406 -148.4455 -1.4788128 -66.742485
11307720000 -1.2480874 -76.529907 -32.485558 -150.33369 -32.483547 -150.47836 -1.4871575 -68.97731
11316715000 -1.227319 -78.435051 -32.859959 -152.43631 -32.860832 -152.38242 -1.4403358 -71.359314
11325710000 -1.2075852 -80.308296 -33.272247 -154.40367 -33.258759 -154.58551 -1.3618401 -73.522072
11334705000 -1.1875308 -82.157234 -33.679981 -156.5591 -33.682125 -156.48283 -1.2981032 -75.255569
11343700000 -1.1670339 -83.981339 -34.112278 -158.37885 -34.098942 -158.34735 -1.2805994 -76.617622
11352695000 -1.1490233 -85.777397 -34.529377 -160.23344 -34.528679 -160.12495 -1.3127002 -77.906075
11361690000 -1.1321878 -87.559303 -34.924358 -162.06996 -34.902481 -161.98117 -1.366344 -79.458405
11370685000 -1.1157049 -89.343346 -35.276642 -163.77487 -35.303432 -163.72345 -1.395425 -81.43187
11379680000 -1.0988472 -91.094002 -35.662998 -165.68335 -35.664314 -165.70276 -1.3729841 -83.684311
11388675000 -1.0811318 -92.837158 -36.034737 -167.43344 -36.024147 -167.589 -1.3084037 -85.860168
11397670000 -1.0646639 -94.55954 -36.42712 -169.54048 -36.44479 -169.47731 -1.2380848 -87.651459
11406665000 -1.0473585 -96.253601 -36.866371 -171.11554 -36.823925 -171.07188 -1.2018727 -88.992699
11415660000 -1.0334917 -97.919716 -37.231579 -172.94582 -37.239773 -172.85974 -1.2162102 -90.123734
11424655000 -1.0198826 -99.58287 -37.60833 -174.49728 -37.592514 -174.61061 -1.2640262 -91.40976
11433650000 -1.0058713 -101.2514 -37.976795 -176.19182 -37.999298 -176.21037 -1.3084681 -93.098015
11442645000 -0.9912973 -102.89415 -38.346931 -177.99783 -38.335098 -178.02818 -1.311273 -95.197266
11451640000 -0.97838426 -104.51904 -38.731297 -179.98256 -38.68325 -179.59653 -1.2659805 -97.354782
11460635000 -0.96267539 -106.14056 -39.06855 178.2144 -39.072605 178.26692 -1.1944355 -99.220291
11469630000 -0.94709396 -107.71557 -39.430389 176.82672 -39.469978 176.74449 -1.1401513 -100.59137
11478625000 -0.93550771 -109.2739 -39.85619 175.14476 -39.874416 175.34068 -1.1303203 -101.61653
11487620000 -0.92467862 -110.84842 -40.271145 173.67068 -40.238918 173.67538 -1.1652588 -102.60538
11496615000 -0.91399592 -112.40934 -40.623287 172.02219 -40.624405 172.3876 -1.216944 -103.96602
11505610000 -0.90217447 -113.94566 -40.965839 170.83475 -40.958641 170.67955 -1.2461367 -105.828
11514605000 -0.89070851 -115.49476 -41.315052 168.61363 -41.288174 169.20465 -1.2261691 -107.94073
11523600000 -0.87729007 -117.01439 -41.691574 166.98187 -41.669945 167.18079 -1.1686283 -109.90677
11532595000 -0.863258 -118.48994 -42.026718 165.39607 -42.078659 165.80482 -1.1075951 -111.43276
11541590000 -0.85308558 -119.9543 -42.396076 164.07237 -42.422798 164.29979 -1.0768633 -112.46723
11550585000 -0.84603524 -121.42831 -42.723534 162.98094 -42.747734 163.02332 -1.0896182 -113.3223
11559580000 -0.83723718 -122.91647 -43.108223 161.36421 -43.109348 161.55205 -1.1375971 -114.40122
11568575000 -0.82922196 -124.38172 -43.462849 160.32779 -43.488754 160.04918 -1.1815075 -115.98459
11577570000 -0.82064992 -125.85313 -43.761253 158.30838 -43.776009 158.56598 -1.18682 -117.95476
11586565000 -0.80740225 -127.31182 -44.124847 156.96538 -44.187057 157.1882 -1.1476722 -119.96793
11595560000 -0.79440027 -128.72736 -44.448807 155.48659 -44.490715 155.82628 -1.0854785 -121.63791
11604555000 -0.78706837 -130.10855 -44.799797 154.22032 -44.831741 154.51018 -1.0361047 -122.7704
11613550000 -0.78059679 -131.51669 -45.155796 152.98907 -45.171486 153.40001 -1.0298669 -123.52624
11622545000 -0.77377224 -132.92154 -45.477169 151.79456 -45.477398 152.22006 -1.0668263 -124.37083
11631540000 -0.76826078 -134.29646 -45.775833 150.77596 -45.783142 151.04773 -1.1165906 -125.66944
11640535000 -0.76265752 -135.71428 -46.064949 149.38524 -46.070286 149.80444 -1.1425854 -127.43625
11649530000 -0.75059569 -137.1042 -46.37817 147.87439 -46.392097 148.2328 -1.1256698 -129.44157
11658525000 -0.74124742 -138.43932 -46.705444 146.44362 -46.729431 146.74097 -1.0717114 -131.21664
11667520000 -0.73416924 -139.79453 -47.057755 145.20193 -47.068119 145.54068 -1.0119691 -132.49176
11676515000 -0.72918969 -141.14507 -47.37254 143.95584 -47.388973 144.52763 -0.98711288 -133.27287
11685510000 -0.72001141 -142.45128 -47.665474 142.84239 -47.679054 143.36609 -1.0059921 -133.99513
11694505000 -0.71516401 -143.75786 -47.948666 141.56779 -47.956638 142.23254 -1.0535924 -135.0083
11703500000 -0.71019089 -145.10806 -48.241253 140.29228 -48.244946 140.81654 -1.0940077 -136.53424
11712495000 -0.70170462 -146.41695 -48.541981 138.8501 -48.559902 139.41971 -1.0963649 -138.42783
11721490000 -0.69539565 -147.69377 -48.872608 137.54282 -48.868526 138.06587 -1.051818 -140.28081
11730485000 -0.69306028 -149.01955 -49.168705 136.29814 -49.162006 136.75163 -0.99500066 -141.66635
11739480000 -0.68578607 -150.33128 -49.500065 135.00771 -49.473576 135.34438 -0.95847106 -142.54471
11748475000 -0.67560071 -151.59778 -49.796337 133.86438 -49.786476 134.35327 -0.96025962 -143.18935
11757470000 -0.67403746 -152.85912 -50.084888 132.83385 -50.067417 133.14684 -0.9991405 -143.98578
11766465000 -0.66800308 -154.14059 -50.358383 131.86308 -50.321709 132.23236 -1.0432932 -145.24054
11775460000 -0.66115052 -155.39117 -50.621304 130.96489 -50.584705 131.16211 -1.0617372 -146.99097
11784455000 -0.66119695 -156.6156 -50.885101 129.58957 -50.827457 129.97533 -1.0349462 -148.85297
11793450000 -0.66010952 -157.9101 -51.203758 128.36034 -51.118992 128.58992 -0.98326886 -150.38097
11802445000 -0.65312165 -159.18091 -51.490803 127.33472 -51.386852 127.62349 -0.94104892 -151.39761
11811440000 -0.6430161 -160.40324 -51.753342 126.49696 -51.646465 126.79634 -0.9280836 -152.08116
11820435000 -0.63857168 -161.62755 -51.961838 125.31511 -51.859272 125.62255 -0.95185065 -152.71765
11829430000 -0.63371509 -162.84547 -52.192486 124.12842 -52.0966 124.15373 -0.99602258 -153.72981
11838425000 -0.6281023 -164.03223 -52.458855 122.87362 -52.359859 122.88319 -1.0255302 -155.24643
11847420000 -0.62884188 -165.25233 -52.718929 122.1921 -52.661152 122.03882 -1.0172659 -157.04402
11856415000 -0.62797487 -166.50641 -52.985149 121.05273 -52.962074 121.07964 -0.97681642 -158.70218
11865410000 -0.61960787 -167.7291 -53.183956 120.11609 -53.172615 120.28136 -0.93004888 -159.88902
11874405000 -0.61294234 -168.89061 -53.494476 119.05221 -53.412457 119.39381 -0.90498912 -160.63745
11883400000 -0.60851967 -170.06027 -53.669445 117.88047 -53.638 118.2569 -0.912714 -161.18921
11892395000 -0.60426152 -171.22374 -53.853039 116.8399 -53.837914 117.04704 -0.95333505 -161.98161
11901390000 -0.60359365 -172.37337 -54.05117 115.52003 -54.061478 115.99098 -0.9923749 -163.26411
11910385000 -0.60673654 -173.55486 -54.295364 114.23869 -54.281345 114.65491 -0.99949992 -164.94014
11919380000 -0.60571831 -174.78993 -54.50288 113.47569 -54.448502 113.60711 -0.97120804 -166.64412
11928375000 -0.59784406 -175.98308 -54.735634 111.82146 -54.719219 111.90046 -0.92358565 -168.01105
11937370000 -0.59091759 -177.1265 -55.002274 110.66039 -54.982784 110.63947 -0.88569134 -168.87788
11946365000 -0.58776188 -178.26428 -55.264374 108.99113 -55.240356 109.32574 -0.87884903 -169.3994
11955360000 -0.58193547 -179.3615 -55.573063 108.38947 -55.459694 108.34148 -0.90798628 -170.01271
11964355000 -0.58418638 179.54613 -55.702221 107.82148 -55.63744 107.4643 -0.94830912 -171.0311
11973350000 -0.59164906 178.37375 -55.823364 106.3931 -55.777634 105.81683 -0.97113162 -172.53383
11982345000 -0.58952326 177.17773 -56.084301 104.94758 -55.983997 104.26846 -0.96150661 -174.22215
11991340000 -0.58293837 176.03606 -56.332531 104.07368 -56.252537 103.18179 -0.92056429 -175.75586
12000335000 -0.57755458 174.88966 -56.531334 102.778 -56.473278 101.8604 -0.87557048 -176.77354
12009330000 -0.57116228 173.78081 -56.806381 101.45033 -56.718781 100.8691 -0.85385311 -177.36382
12018325000 -0.5659759 172.7207 -57.007473 100.67754 -56.938881 99.632759 -0.87296945 -177.85933
12027320000 -0.57269222 171.66685 -57.171104 99.39193 -57.143349 98.241356 -0.90857464 -178.67439
12036315000 -0.57509345 170.51857 -57.358078 98.372002 -57.345802 97.07811 -0.93933922 -179.96143
12045310000 -0.57149237 169.36339 -57.501369 96.707642 -57.60931 96.00824 -0.94574231 178.37949
12054305000 -0.56774235 168.24458 -57.795261 95.445938 -57.896667 94.433174 -0.91918284 176.7224
12063300000 -0.56368756 167.12872 -58.067345 94.085716 -58.250103 93.568398 -0.86742079 175.49742
12072295000 -0.5585745 166.05847 -58.366451 93.619324 -58.552296 92.687912 -0.83097726 174.81752
12081290000 -0.5543862 165.02222 -58.559277 93.274605 -58.783085 92.431946 -0.83064878 174.37315
12090285000 -0.55877471 163.99028 -58.627949 92.979866 -58.918644 92.046768 -0.85560226 173.82451
12099280000 -0.56613338 162.86108 -58.699856 91.673096 -59.009617 91.01931 -0.89459264 172.86209
12108275000 -0.56406891 161.75203 -58.908218 90.140541 -59.189426 90.188232 -0.92349946 171.39639
12117270000 -0.55931997 160.67227 -58.959717 89.081871 -59.272839 89.553497 -0.91406912 169.68376
12126265000 -0.5587815 159.54892 -59.051769 87.766396 -59.386616 88.337036 -0.87485266 168.25787
12135260000 -0.55108321 158.4919 -59.31395 86.230186 -59.437687 87.098328 -0.82921666 167.33925
12144255000 -0.54419363 157.50227 -59.488232 85.490288 -59.61718 85.986893 -0.81011373 166.81718
12153250000 -0.55179238 156.47319 -59.613335 84.656891 -59.699078 84.837013 -0.81826651 166.39246
12162245000 -0.55470622 155.38313 -59.63747 82.752678 -59.777237 83.108292 -0.85366845 165.67641
12171240000 -0.55240142 154.3183 -59.676926 80.833099 -59.891956 81.238159 -0.89303344 164.38824
12180235000 -0.5505501 153.25851 -59.828102 79.134987 -59.956257 79.78228 -0.90418988 162.72707
12189230000 -0.546435 152.17676 -59.966858 76.973099 -60.060253 78.028946 -0.87636417 161.14487
12198225000 -0.54051423 151.16972 -60.059696 74.791039 -60.183331 75.221764 -0.82944918 159.99857
12207220000 -0.53958851 150.19 -60.328663 72.399956 -60.402641 73.479179 -0.79042363 159.36787
12216215000 -0.54588664 149.15959 -60.739849 69.872414 -60.7673 71.662247 -0.77861339 159.06131
12225210000 -0.54685068 148.10361 -60.952213 68.816139 -61.041306 70.956337 -0.80740911 158.59648
12234205000 -0.54602313 147.06801 -61.004154 67.646126 -61.111706 70.622719 -0.85560983 157.61827
12243200000 -0.54380721 145.99748 -61.173042 65.863579 -61.259468 68.179237 -0.88614595 156.10254
12252195000 -0.54446679 144.93881 -61.318241 63.220097 -61.400745 65.68441 -0.8800754 154.41936
12261190000 -0.53632778 143.95377 -61.610348 61.320995 -61.70647 63.846348 -0.84244663 153.00339
12270185000 -0.53830934 142.9845 -62.02882 59.855469 -62.045193 61.860027 -0.7890774 152.11868
12279180000 -0.54446059 141.97621 -62.379906 59.061665 -62.432014 60.559025 -0.75503188 151.75172
12288175000 -0.5456354 140.92094 -62.558292 58.546307 -62.501884 60.777893 -0.76472843 151.45132
12297170000 -0.54487348 139.92317 -62.659317 57.111187 -62.70879 58.859348 -0.80683053 150.75653
12306165000 -0.54481304 138.89159 -62.926086 54.856651 -63.00687 56.697884 -0.85134089 149.50922
12315160000 -0.54108536 137.85385 -63.147022 54.147125 -63.278122 55.206383 -0.87060809 147.87019
12324155000 -0.53777403 136.8709 -63.486893 52.294743 -63.60173 54.184521 -0.84503573 146.27054
12333150000 -0.53874624 135.89645 -63.987129 52.526527 -63.90667 53.843964 -0.79192287 145.16237
12342145000 -0.54124051 134.88826 -64.123192 52.300762 -64.018944 53.870186 -0.74379534 144.65515
12351140000 -0.54076231 133.87227 -64.258858 51.878166 -64.084297 52.862942 -0.73115462 144.41585
12360135000 -0.5385502 132.90114 -64.475891 50.781769 -64.306007 52.099144 -0.76089853 143.99142
12369130000 -0.5390296 131.90417 -64.750443 49.516037 -64.496368 50.876163 -0.81104183 143.03734
12378125000 -0.53853291 130.9158 -64.857262 48.639435 -64.651932 49.653912 -0.8505612 141.55293
12387120000 -0.53817719 129.94072 -65.090263 46.993824 -64.768143 48.901913 -0.8470639 139.84924
12396115000 -0.54261088 128.96278 -65.143654 47.13641 -64.959335 48.423328 -0.80162686 138.48621
12405110000 -0.54487729 127.93248 -65.142296 45.350765 -64.851089 47.309864 -0.7432037 137.74042
12414105000 -0.542454 126.93748 -65.133568 43.225266 -64.836052 45.874138 -0.71253461 137.46071
12423100000 -0.5382604 125.9726 -65.296936 40.665848 -64.894569 43.433601 -0.72265941 137.19246
12432095000 -0.53874683 124.99894 -65.575851 38.851616 -65.256622 41.426899 -0.76775688 136.54446
12441090000 -0.53920341 124.02124 -65.631432 38.173073 -65.240494 40.083443 -0.81941396 135.27817
12450085000 -0.5389086 123.06869 -65.502228 36.052391 -65.179573 39.387215 -0.84023279 133.58592
12459080000 -0.54495478 122.102 -65.709091 33.798183 -65.341187 36.562794 -0.81045467 132.02101
12468075000 -0.54575282 121.09242 -65.636383 31.853043 -65.345047 33.468178 -0.75239605 130.98285
12477070000 -0.54445648 120.12314 -65.888786 28.421921 -65.705086 30.396973 -0.70455551 130.50867
12486065000 -0.54330873 119.15581 -66.252052 25.643667 -66.153191 27.851295 -0.68998659 130.31323
12495060000 -0.54227388 118.19434 -66.635971 24.489183 -66.340134 27.117516 -0.71944618 129.9431
12504055000 -0.54010737 117.25549 -67.170525 23.275089 -66.537834 25.131804 -0.77374285 129.00449
12513050000 -0.54199439 116.32785 -67.508934 21.900095 -66.76403 22.60294 -0.81172895 127.51241
12522045000 -0.54578948 115.36695 -67.904762 21.813467 -67.241096 21.492643 -0.80767345 125.90253
12531040000 -0.54691118 114.39422 -68.134727 21.488398 -67.537086 19.889912 -0.76699394 124.60824
12540035000 -0.54640681 113.44534 -68.494209 21.024101 -67.843803 18.882895 -0.7114684 123.88358
12549030000 -0.54560548 112.47801 -69.044937 20.299015 -68.051132 18.929922 -0.67559105 123.61204
12558025000 -0.54640269 111.51437 -69.549706 20.933109 -68.649567 17.401236 -0.683182 123.37188
12567020000 -0.54340965 110.58783 -69.913979 22.157841 -69.126984 16.781023 -0.73017448 122.69262
12576015000 -0.54537243 109.65641 -69.615311 25.18907 -69.195885 21.491272 -0.77837402 121.45616
12585010000 -0.55092567 108.69125 -69.205482 24.769712 -68.970688 19.787373 -0.79710925 119.87777
12594005000 -0.5510717 107.72299 -69.270798 21.29866 -68.752831 17.029491 -0.7752586 118.3991
12603000000 -0.55169743 106.76803 -69.476883 18.503614 -69.304039 16.660999 -0.72042453 117.38814
12611995000 -0.55095446 105.81664 -69.268875 17.737246 -69.23838 15.525399 -0.66861355 116.96087
12620990000 -0.54905117 104.87722 -68.916458 14.445743 -69.13488 14.457735 -0.65377671 116.80014
12629985000 -0.54604077 103.97243 -69.245766 13.204772 -69.429649 13.332097 -0.68333864 116.38394
12638980000 -0.55006558 103.05916 -69.032188 11.900876 -69.223534 11.50088 -0.73302877 115.42268
12647975000 -0.55293888 102.10875 -69.012192 7.8064837 -69.1717 8.1568003 -0.77398723 113.98151
12656970000 -0.55458033 101.16554 -69.258957 5.5718446 -69.186203 5.6757426 -0.77627432 112.36714
12665965000 -0.55437094 100.22066 -69.244469 3.8667638 -69.620316 3.2373438 -0.73217446 111.06985
12674960000 -0.55298001 99.26741 -69.233994 2.4600513 -69.546494 3.2493777 -0.66974175 110.3995
12683955000 -0.55002564 98.3358 -69.387123 -1.2967031 -69.588402 -0.49995971 -0.63147557 110.18215
12692950000 -0.54966193 97.431053 -69.676239 -4.4994693 -69.59095 -4.4963913 -0.63743472 109.96107
12701945000 -0.55451089 96.524628 -69.927864 -8.8074293 -69.95105 -10.500473 -0.67824328 109.3333
12710940000 -0.55644691 95.584038 -70.926003 -10.632101 -70.811783 -11.680675 -0.73280907 108.14919
12719935000 -0.55702603 94.644333 -71.468735 -10.870115 -71.277016 -12.261776 -0.76267576 106.55516
12728930000 -0.55793661 93.707809 -71.572517 -11.713606 -71.58268 -13.323312 -0.74263394 105.03926
12737925000 -0.55742919 92.778877 -72.409386 -12.783772 -72.25251 -12.637444 -0.68436003 104.0554
12746920000 -0.55557013 91.862076 -73.032455 -11.54061 -72.778976 -11.323553 -0.62744278 103.63879
12755915000 -0.55522126 90.971786 -73.295906 -12.334217 -72.983856 -11.819478 -0.60481369 103.4515
12764910000 -0.56059951 90.04467 -73.58709 -11.740291 -72.893433 -11.484512 -0.62599957 103.10084
12773905000 -0.56213045 89.099625 -73.846672 -11.194362 -72.961403 -12.289895 -0.67870778 102.23023
12782900000 -0.56238443 88.175186 -73.949196 -13.099713 -73.169113 -17.225466 -0.73255414 100.78985
12791895000 -0.56307453 87.245361 -74.355736 -12.194219 -74.006485 -17.261494 -0.74063432 99.180313
12800890000 -0.56193894 86.327599 -74.455727 -10.952239 -74.571724 -15.612302 -0.69772255 97.925354
12809885000 -0.55875087 85.437935 -74.085518 -8.7221165 -74.091133 -11.799541 -0.63258153 97.244865
12818880000 -0.56130761 84.55217 -73.632378 -10.464235 -73.366173 -11.61021 -0.58457994 97.00827
12827875000 -0.56609768 83.628654 -73.41626 -14.409681 -73.573067 -16.110796 -0.57919234 96.830162
12836870000 -0.56703436 82.707176 -73.473259 -18.08548 -74.117325 -18.473976 -0.62101668 96.281746
12845865000 -0.56769693 81.784126 -73.802055 -24.331446 -74.053917 -21.162647 -0.68801111 95.096558
12854860000 -0.56817454 80.860252 -74.694 -23.101833 -74.697617 -22.036739 -0.72556812 93.520325
12863855000 -0.5653531 79.944771 -74.688667 -20.357136 -75.189926 -19.945171 -0.71203381 92.01432
12872850000 -0.56454057 79.0634 -74.326073 -17.293333 -74.784767 -16.83823 -0.65314269 90.989937
12881845000 -0.56617641 78.18145 -73.700272 -19.265011 -74.080498 -22.895765 -0.58381534 90.547791
12890840000 -0.57013583 77.285927 -73.673943 -23.931425 -74.150139 -29.513418 -0.54652101 90.431122
12899835000 -0.57201886 76.374115 -74.413635 -26.380529 -75.485359 -33.903286 -0.56414998 90.138535
12908830000 -0.57431901 75.460396 -74.773636 -23.741758 -76.4403 -28.658535 -0.62475652 89.290337
12917825000 -0.57465553 74.536667 -74.770454 -24.046328 -76.300949 -24.931915 -0.68473947 87.905655
12926820000 -0.57489133 73.619766 -74.750298 -28.279116 -75.609276 -26.249384 -0.70706946 86.326233
12935815000 -0.57520133 72.726349 -75.073929 -32.950699 -75.302681 -26.254742 -0.67173529 85.013039
12944810000 -0.57522851 71.827591 -74.557053 -30.870892 -75.762947 -28.83457 -0.59607661 84.307327
12953805000 -0.57678854 70.917526 -74.829529 -34.019665 -75.681053 -31.057861 -0.53444493 84.078522
12962800000 -0.57746321 70.009804 -74.696938 -39.522289 -75.309631 -33.032417 -0.52173591 83.916504
12971795000 -0.57842988 69.105598 -75.304779 -40.858646 -75.243835 -31.731297 -0.5652222 83.356323
12980790000 -0.57895428 68.200317 -75.400467 -43.581238 -75.872536 -36.209274 -0.63521034 82.218964
12989785000 -0.57887822 67.310516 -75.597641 -43.64397 -75.868118 -32.599457 -0.68492192 80.670265
12998780000 -0.58013546 66.416573 -75.973183 -42.143925 -76.10125 -33.721668 -0.67974961 79.147903
13007775000 -0.58179992 65.521118 -75.902786 -41.76104 -74.958885 -32.744183 -0.61651266 78.133324
13016770000 -0.5822022 64.615746 -75.888626 -45.024223 -74.738029 -38.958981 -0.53754258 77.709145
13025765000 -0.58267164 63.719948 -75.766006 -46.130157 -74.933846 -41.326252 -0.49203646 77.581116
13034760000 -0.58313763 62.819202 -75.510361 -43.909088 -74.791916 -38.737637 -0.50538486 77.289635
13043755000 -0.5828318 61.921989 -75.700867 -44.967934 -74.935188 -39.884174 -0.56918162 76.48011
13052750000 -0.58506775 61.019981 -75.108543 -47.435776 -74.189644 -45.149841 -0.64195031 75.112259
13061745000 -0.58577275 60.117741 -75.247856 -51.344177 -74.503189 -50.514416 -0.67367375 73.529327
13070740000 -0.58762938 59.217373 -75.583977 -54.241859 -75.194824 -52.636723 -0.63994676 72.199203
13079735000 -0.58771354 58.315956 -76.220215 -47.426151 -75.476372 -53.600887 -0.56039542 71.43232
13088730000 -0.58638602 57.423409 -75.311043 -47.276405 -75.444557 -52.558079 -0.48781595 71.143799
13097725000 -0.58629358 56.525826 -74.936172 -48.776073 -74.904182 -55.174988 -0.46153334 70.978012
13106720000 -0.58786172 55.632965 -73.333481 -54.106949 -74.276848 -54.631912 -0.5012632 70.483727
13115715000 -0.58943969 54.739868 -73.451866 -64.571442 -73.878059 -64.403915 -0.57727426 69.435257
13124710000 -0.59161288 53.843472 -74.338585 -73.79808 -74.39724 -71.02887 -0.63971311 67.969933
13133705000 -0.59209108 52.94389 -74.725021 -78.145599 -74.977493 -74.465179 -0.64421093 66.510902
13142700000 -0.59150636 52.04208 -75.716469 -82.431984 -75.303436 -74.646431 -0.58620441 65.431519
13151695000 -0.59129041 51.153393 -75.425079 -80.379555 -75.293602 -76.053452 -0.50332379 64.890373
13160690000 -0.59164166 50.275707 -75.603004 -82.355492 -75.15799 -79.302025 -0.4443 64.651718
13169685000 -0.59374118 49.401287 -75.243568 -84.129883 -75.176895 -80.336327 -0.44721171 64.328064
13178680000 -0.59769225 48.499748 -75.231529 -91.398903 -74.850716 -81.181107 -0.50677747 63.570511
13187675000 -0.59920365 47.584026 -75.335564 -97.562958 -74.906654 -87.841331 -0.58403713 62.33868
13196670000 -0.59900576 46.684128 -75.929337 -108.59402 -75.930885 -92.808876 -0.62725645 60.885769
13205665000 -0.59894037 45.781666 -78.51992 -106.94956 -76.372925 -87.288116 -0.60574478 59.607471
13214660000 -0.59695798 44.888897 -78.858437 -91.366196 -75.998268 -83.569519 -0.53245872 58.774326
13223655000 -0.59525293 44.019627 -77.963608 -92.725517 -74.91552 -87.06839 -0.45250174 58.374607
13232650000 -0.59813696 43.141121 -77.653694 -95.043015 -75.221062 -92.674416 -0.41619247 58.097332
13241645000 -0.60148758 42.236179 -78.221199 -98.179794 -75.715485 -94.658043 -0.44740081 57.579765
13250640000 -0.6024465 41.329933 -78.652725 -95.159477 -76.118286 -94.659355 -0.52112001 56.613255
13259635000 -0.60220236 40.437824 -78.434685 -86.923912 -75.67865 -95.222137 -0.59084702 55.280891
13268630000 -0.60206586 39.523842 -78.59552 -81.775246 -75.456993 -95.921967 -0.60728908 53.889992
13277625000 -0.59978312 38.633678 -77.625168 -84.167976 -75.367424 -98.682556 -0.56127846 52.802471
13286620000 -0.60050952 37.765205 -77.03183 -81.103127 -75.539604 -100.38888 -0.47623396 52.141216
13295615000 -0.60424691 36.884682 -75.86937 -80.507393 -75.140419 -100.87837 -0.40942067 51.785545
13304610000 -0.60895002 35.967796 -74.68383 -86.422134 -74.911766 -103.27055 -0.40021569 51.407509
13313605000 -0.60867184 35.058941 -73.371429 -90.354317 -74.462845 -102.75386 -0.45312607 50.704922
13322600000 -0.60712618 34.168198 -73.066017 -100.74079 -73.614067 -110.88079 -0.53224808 49.585793
13331595000 -0.6073873 33.254761 -73.435562 -112.45165 -73.47274 -116.09641 -0.58462232 48.251461
13340590000 -0.60332686 32.377769 -74.507431 -114.44621 -74.107719 -125.14915 -0.57286263 47.001232
13349585000 -0.60390806 31.525988 -74.488083 -112.10689 -74.396835 -125.00086 -0.50503504 46.105415
13358580000 -0.61093873 30.642427 -74.242836 -109.75183 -75.035057 -120.67319 -0.42318371 45.569592
13367575000 -0.61347508 29.72525 -73.055489 -114.71156 -73.934097 -122.87101 -0.37732726 45.206509
13376570000 -0.61243981 28.814693 -72.82 -121.36781 -73.634689 -127.05994 -0.39942467 44.677193
13385565000 -0.61433142 27.892565 -72.687698 -123.43271 -73.196266 -130.74281 -0.47018769 43.782787
13394560000 -0.60828739 26.974537 -72.412827 -129.54469 -73.309967 -136.09354 -0.54319054 42.581032
13403555000 -0.60394645 26.111258 -72.414635 -132.30637 -73.581886 -138.48615 -0.57012993 41.265587
13412550000 -0.60438317 25.280926 -72.691246 -134.58174 -73.56131 -134.96584 -0.52916884 40.153782
13421545000 -0.61037022 24.413303 -72.574547 -136.97026 -73.114372 -137.91003 -0.4483487 39.386669
13430540000 -0.61671257 23.504446 -72.494446 -139.07013 -73.054832 -136.95711 -0.37846786 38.919617
13439535000 -0.6191296 22.583094 -71.794777 -137.62984 -72.328735 -136.38029 -0.36253163 38.464088
13448530000 -0.61937827 21.639582 -71.348679 -140.5105 -71.719948 -139.42854 -0.40866154 37.791981
13457525000 -0.61638558 20.68961 -70.482178 -145.55502 -70.875031 -142.33472 -0.48682028 36.788757
13466520000 -0.61198795 19.823746 -70.337158 -153.31705 -70.507545 -148.08115 -0.54183751 35.539585
13475515000 -0.61243087 18.95879 -70.409904 -159.57402 -70.228035 -154.1422 -0.5388025 34.31279
13484510000 -0.61695987 18.068304 -70.803764 -162.45244 -70.374199 -159.8582 -0.47854286 33.364414
13493505000 -0.62082672 17.175739 -71.100494 -160.26796 -70.619217 -161.19592 -0.4005532 32.736862
13502500000 -0.62122518 16.291286 -70.513458 -160.82455 -70.07782 -160.97133 -0.35284695 32.253605
13511495000 -0.62336683 15.357158 -69.365379 -162.91641 -69.290756 -166.04214 -0.36513081 31.692825
13520490000 -0.61959803 14.425249 -68.869865 -173.0341 -69.103554 -173.97646 -0.43219766 30.879696
13529485000 -0.61475962 13.567421 -69.43364 -178.37576 -69.364349 -179.26245 -0.50295758 29.741749
13538480000 -0.6188463 12.690781 -69.458862 178.19481 -69.576912 178.28886 -0.53153884 28.506308
13547475000 -0.62284392 11.805726 -69.43988 176.57521 -69.310402 173.82008 -0.49907923 27.408045
13556470000 -0.62480497 10.899584 -69.628319 171.36591 -69.566589 167.34169 -0.42881566 26.582083
13565465000 -0.6282444 10.014416 -70.006622 168.49841 -69.838074 164.72824 -0.36098927 25.978279
13574460000 -0.62990594 9.0711536 -69.831238 168.28119 -69.807755 165.19342 -0.33989978 25.453156
13583455000 -0.62545693 8.1409349 -69.660789 164.27954 -69.878624 161.85487 -0.37930337 24.782619
13592450000 -0.62434375 7.2654362 -69.847534 161.25894 -70.054596 160.28693 -0.44941309 23.819113
13601445000 -0.62697768 6.3738441 -70.01236 157.81755 -70.234184 157.24936 -0.49923053 22.670397
13610440000 -0.63010556 5.4421344 -70.649765 156.49136 -70.485596 154.55772 -0.50045383 21.550564
13619435000 -0.62974703 4.5451889 -70.74778 157.7897 -70.528786 157.06709 -0.45309588 20.589119
13628430000 -0.6312052 3.6614211 -70.117355 159.73203 -70.184853 154.57663 -0.38269252 19.825953
13637425000 -0.63402724 2.727092 -69.820511 156.22142 -70.549286 152.60641 -0.33891591 19.259083
13646420000 -0.6286363 1.8094518 -69.644035 152.9848 -70.723007 153.32628 -0.35039258 18.631819
13655415000 -0.6284284 0.94810712 -69.835503 151.73196 -70.46933 156.45308 -0.40326387 17.783573
13664410000 -0.63356626 0.020176746 -69.749313 153.07549 -69.621071 157.59686 -0.46141618 16.736053
13673405000 -0.63318616 -0.90503484 -69.079231 152.52501 -69.084686 154.68172 -0.49007738 15.60541
13682400000 -0.63239563 -1.7844052 -68.604294 148.99995 -68.439789 149.94926 -0.46737355 14.523048
13691395000 -0.63576734 -2.6828692 -68.394661 144.95193 -68.280342 145.73184 -0.40749112 13.63437
13700390000 -0.6346072 -3.6051998 -68.247772 142.78835 -68.091591 141.58099 -0.34768441 12.972054
13709385000 -0.62795424 -4.4921865 -68.233643 140.86371 -68.351204 139.24411 -0.33164847 12.353387
13718380000 -0.63224113 -5.3650498 -68.097618 139.39999 -68.190674 138.4628 -0.35948741 11.624116
13727375000 -0.63755703 -6.2830219 -68.029198 139.3933 -67.758957 136.63055 -0.41292596 10.730256
13736370000 -0.63764012 -7.2428231 -67.499023 137.44572 -67.356155 134.70403 -0.46085688 9.6696491
13745365000 -0.63691133 -8.1188517 -67.06179 135.61732 -67.163506 130.0002 -0.46675986 8.5827847
13754360000 -0.63993329 -9.0371418 -66.765099 130.68291 -67.054993 125.6957 -0.42712051 7.5953617
13763355000 -0.63829368 -9.98911 -66.772217 127.50977 -67.143295 122.75727 -0.37229803 6.8120408
13772350000 -0.63522857 -10.858557 -66.322548 126.74371 -66.990379 121.40112 -0.33621994 6.0957751
13781345000 -0.63993329 -11.734854 -65.809631 122.88771 -66.787872 117.97926 -0.33598921 5.3956676
13790340000 -0.64410555 -12.687087 -65.850937 117.84544 -66.72422 115.11244 -0.3735806 4.5950236
13799335000 -0.64203107 -13.62762 -65.9646 114.40536 -67.027275 114.28178 -0.4232128 3.6368411
13808330000 -0.64083594 -14.521547 -65.928604 112.83611 -66.796707 114.57014 -0.45007887 2.5705562
13817325000 -0.64604706 -15.472433 -65.90593 110.69995 -66.442635 112.99757 -0.43421289 1.5547752
13826320000 -0.64416623 -16.399702 -65.567818 109.85477 -66.126205 109.5976 -0.39352003 0.66814715
13835315000 -0.64034784 -17.276766 -65.307434 105.84593 -65.923279 105.89104 -0.35002163 -0.13858564
13844310000 -0.64655381 -18.179733 -65.175926 99.797066 -66.165115 101.62108 -0.32958895 -0.88665795
13853305000 -0.64867949 -19.122517 -65.504601 96.459747 -66.279633 100.92931 -0.34691581 -1.625744
13862300000 -0.64485896 -20.040422 -65.564461 94.986717 -66.031235 99.305801 -0.39153463 -2.526679
13871295000 -0.64760929 -20.943502 -65.540054 93.350349 -66.035797 96.659363 -0.42881194 -3.5441155
13880290000 -0.65137786 -21.891895 -65.532341 91.915459 -65.978073 95.590401 -0.43524519 -4.5576644
13889285000 -0.64227295 -22.817926 -65.436211 88.916916 -65.715057 92.421127 -0.41274318 -5.5237107
13898280000 -0.64455026 -23.695051 -65.316978 87.858498 -65.581726 90.108246 -0.37093237 -6.4449129
13907275000 -0.65029347 -24.603106 -64.767143 85.551918 -65.072929 87.593163 -0.33451217 -7.237278
13916270000 -0.65047872 -25.562557 -64.532112 80.608665 -64.976173 81.439507 -0.33111626 -7.9884067
13925265000 -0.64948928 -26.484592 -64.717308 76.214264 -65.3946 76.063919 -0.36135021 -8.8040562
13934260000 -0.65344387 -27.411142 -65.110474 72.954231 -66.090729 76.97522 -0.39811486 -9.7136002
13943255000 -0.65360034 -28.373102 -65.43853 72.794395 -65.924263 79.550957 -0.42080194 -10.628106
13952250000 -0.6504246 -29.280024 -65.213982 70.877403 -65.356422 77.230278 -0.41923591 -11.618032
13961245000 -0.65289205 -30.155384 -65.217491 67.204582 -65.164909 72.756004 -0.39286116 -12.60366
13970240000 -0.6600107 -31.082548 -65.513985 64.68454 -65.462761 69.697556 -0.35487625 -13.487025
13979235000 -0.65922093 -32.0331 -65.628525 63.884747 -65.600464 68.169846 -0.34191352 -14.324756
13988230000 -0.66085994 -32.951794 -65.495964 62.962616 -65.490379 67.42202 -0.35547012 -15.216686
13997225000 -0.66421467 -33.903053 -65.257042 58.745022 -65.389488 65.421242 -0.38235384 -16.121319
14006220000 -0.66233587 -34.883121 -65.724136 53.695313 -65.87133 61.316418 -0.40607086 -17.025826
14015215000 -0.65556479 -35.78656 -66.686142 50.841465 -66.309822 59.973175 -0.41548571 -17.97633
14024210000 -0.65957433 -36.67907 -67.517082 56.004051 -66.584465 63.964981 -0.39500225 -18.933413
14033205000 -0.66241157 -37.63834 -67.150528 60.268333 -66.00444 63.907402 -0.3626425 -19.797785
14042200000 -0.66099918 -38.572319 -66.36879 59.503242 -65.614098 61.669941 -0.34471479 -20.629189
14051195000 -0.66091269 -39.480476 -66.231743 54.548233 -65.581795 56.772827 -0.34984991 -21.538816
14060190000 -0.66523552 -40.4286 -66.461617 52.063274 -65.678055 53.708767 -0.36767632 -22.430357
14069185000 -0.66212541 -41.40678 -66.904953 50.7952 -66.221954 50.64304 -0.39772421 -23.318455
14078180000 -0.660743 -42.278248 -67.442596 52.350067 -66.946754 53.810211 -0.41762286 -24.315485
14087175000 -0.66591382 -43.164425 -67.541916 58.165039 -66.789772 59.741707 -0.40555444 -25.302376
14096170000 -0.67163074 -44.123775 -66.733261 60.268341 -65.921753 59.989437 -0.37722167 -26.172279
14105165000 -0.67406797 -45.07235 -66.361542 59.409924 -65.680603 57.44334 -0.3606782 -27.061281
14114160000 -0.67749858 -45.996391 -65.739464 58.455151 -65.161629 56.759567 -0.35468721 -28.001799
14123155000 -0.68208116 -47.025818 -65.343536 54.715782 -64.964569 52.301094 -0.36310205 -28.89628
14132150000 -0.6737926 -48.00222 -65.266472 51.346149 -65.05661 50.050114 -0.39161536 -29.805672
14141145000 -0.66965449 -48.877613 -65.49102 51.831043 -65.216003 50.987576 -0.40802029 -30.797449
14150140000 -0.67507696 -49.765526 -65.30574 53.108261 -64.905434 51.603233 -0.3987121 -31.729809
14159135000 -0.67739207 -50.729538 -64.976311 53.238716 -64.411659 50.816067 -0.38129336 -32.579681
14168130000 -0.67664605 -51.656662 -64.491364 52.001118 -63.894089 48.753883 -0.36862531 -33.449867
14177125000 -0.68334317 -52.607548 -64.155746 49.528019 -63.770725 44.544792 -0.35912076 -34.399002
14186120000 -0.68670261 -53.606579 -63.658577 47.197033 -63.824005 41.402798 -0.36573678 -35.307384
14195115000 -0.68041414 -54.577084 -63.485138 42.169147 -63.847591 39.0863 -0.392535 -36.273712
14204110000 -0.67938882 -55.448021 -63.618515 37.752979 -64.022751 35.895264 -0.40819204 -37.300896
14213105000 -0.68628508 -56.404205 -63.93618 36.596394 -64.390434 36.538143 -0.40137166 -38.209236
14222100000 -0.68499529 -57.375446 -64.181755 38.368214 -64.280754 38.260281 -0.38768399 -39.059254
14231095000 -0.68325138 -58.290619 -63.857296 37.914001 -63.931747 37.401703 -0.3778567 -39.934193
14240090000 -0.69143939 -59.212482 -63.674114 35.760036 -63.643124 36.51725 -0.36639014 -40.842621
14249085000 -0.69008374 -60.209923 -63.394123 35.463879 -63.415257 35.335495 -0.37254903 -41.738007
14258080000 -0.68489766 -61.134544 -62.905632 33.461033 -62.907684 33.068539 -0.39727202 -42.748856
14267075000 -0.68747008 -62.03447 -62.638092 28.746468 -62.803658 28.89921 -0.41432682 -43.798775
14276070000 -0.69769943 -63.013115 -62.85363 24.472187 -62.921234 24.572237 -0.4104915 -44.765533
14285065000 -0.69504201 -63.989666 -63.430733 24.391119 -63.362785 23.929983 -0.40050834 -45.638077
14294060000 -0.69430053 -64.890335 -63.357868 26.186226 -63.310627 26.784155 -0.38973814 -46.505512
14303055000 -0.69928861 -65.853691 -62.877548 27.103434 -62.710548 25.55411 -0.37708867 -47.343891
14312050000 -0.69794261 -66.838516 -62.470779 23.940973 -62.440197 22.646849 -0.38061568 -48.236454
14321045000 -0.6957894 -67.75753 -62.413738 19.445839 -62.626507 19.177179 -0.40422547 -49.260471
14330040000 -0.69817364 -68.658264 -62.808857 18.133814 -62.79528 18.555231 -0.42393026 -50.356022
14339035000 -0.70605487 -69.632713 -62.664543 20.079821 -62.443924 20.386379 -0.42517993 -51.351292
14348030000 -0.70339507 -70.622986 -62.249401 17.784163 -62.124435 17.622692 -0.42301649 -52.286812
14357025000 -0.7055195 -71.531967 -62.410904 14.808238 -62.32901 14.643748 -0.4076404 -53.190872
14366020000 -0.70933378 -72.500114 -62.977928 17.041048 -62.667919 15.229929 -0.39002982 -53.998028
14375015000 -0.70619863 -73.477776 -62.427151 20.618095 -62.411301 18.144394 -0.38993043 -54.830315
14384010000 -0.70218903 -74.373756 -61.554825 19.532242 -61.551964 17.372335 -0.41152215 -55.8265
14393005000 -0.71088755 -75.303116 -61.078434 14.418793 -61.383038 12.110046 -0.42986667 -56.90181
14402000000 -0.71656537 -76.31144 -61.009491 10.352457 -61.371384 10.555723 -0.44361389 -57.941193
14410995000 -0.71107811 -77.267708 -61.09341 8.285779 -61.344055 9.2361393 -0.44515228 -58.967968
14419990000 -0.71308732 -78.183311 -61.008831 7.315289 -61.223816 7.6676702 -0.43043059 -59.918873
14428985000 -0.71786064 -79.154991 -60.871586 5.7912755 -60.93441 6.5852847 -0.40862715 -60.748558
14437980000 -0.71515059 -80.120384 -60.737835 4.2116089 -60.775707 4.9857564 -0.40700921 -61.543331
14446975000 -0.7169525 -81.011826 -60.522579 2.5427449 -60.49292 2.9591994 -0.41970977 -62.472332
14455970000 -0.72681743 -81.962502 -60.435104 0.80530912 -60.271454 0.99541932 -0.43627143 -63.478127
14464965000 -0.72829604 -82.997429 -60.069374 -0.50634718 -60.131958 -1.2439297 -0.4580085 -64.520653
14473960000 -0.72664326 -83.976799 -59.926476 -3.228168 -60.10638 -3.3504276 -0.46794465 -65.605438
14482955000 -0.72782308 -84.916718 -59.736015 -5.9318275 -59.911999 -5.3890033 -0.45286059 -66.590111
14491950000 -0.72682446 -85.921753 -59.85186 -7.9025664 -59.814537 -7.7319431 -0.43083733 -67.417694
14500945000 -0.7233724 -86.854347 -59.943123 -8.5372009 -59.835846 -8.2856207 -0.42491099 -68.212662
14509940000 -0.72672987 -87.74147 -59.623035 -8.361414 -59.574749 -8.3912306 -0.4314248 -69.093918
14518935000 -0.73691273 -88.695953 -59.314529 -10.919669 -59.191246 -11.663157 -0.44864148 -70.075935
14527930000 -0.74104327 -89.709915 -59.104443 -13.080639 -59.121983 -14.085394 -0.47837871 -71.139595
14536925000 -0.73629683 -90.661949 -59.056095 -16.189913 -59.224316 -17.1565 -0.49278915 -72.293655
14545920000 -0.74010384 -91.64315 -59.099262 -18.187181 -59.291504 -18.512175 -0.48464158 -73.348434
14554915000 -0.73871666 -92.63829 -59.069256 -18.330847 -59.319099 -19.138786 -0.46755141 -74.223122
14563910000 -0.73290741 -93.549347 -58.842064 -20.180325 -59.14257 -20.260139 -0.45161298 -75.067993
14572905000 -0.7373572 -94.416847 -58.743004 -21.441607 -59.066513 -21.27133 -0.44446689 -75.910194
14581900000 -0.74945301 -95.372818 -58.433155 -21.377701 -58.85614 -20.88653 -0.45879298 -76.774918
14590895000 -0.75272113 -96.356277 -57.815292 -25.177706 -58.293915 -23.364225 -0.49385142 -77.793358
14599890000 -0.75494683 -97.316147 -57.750404 -30.181353 -58.091419 -27.288675 -0.51758993 -78.963242
14608885000 -0.75808257 -98.324379 -57.903305 -33.683285 -58.067982 -30.170393 -0.51950282 -80.082733
14617880000 -0.75530726 -99.347839 -58.041958 -34.420376 -58.012302 -31.123291 -0.50471491 -81.063759
14626875000 -0.7476548 -100.27802 -57.649887 -35.772835 -57.627274 -32.999687 -0.4869729 -81.962479
14635870000 -0.75364786 -101.19308 -57.289165 -38.756683 -57.269348 -36.752193 -0.47166544 -82.797302
14644865000 -0.75945467 -102.16627 -57.186478 -44.086708 -57.170296 -40.986633 -0.4804664 -83.627281
14653860000 -0.75956845 -103.12156 -57.561123 -47.536594 -57.376041 -44.279045 -0.511522 -84.628281
14662855000 -0.76088679 -104.05221 -57.527328 -48.85416 -57.273663 -46.691589 -0.53868937 -85.799911
14671850000 -0.76368976 -105.04774 -57.561836 -50.958965 -57.288521 -49.497383 -0.54676527 -86.938431
14680845000 -0.76030976 -106.00953 -57.610096 -53.093102 -57.26511 -51.601215 -0.5414651 -87.964996
14689840000 -0.75951451 -106.93161 -57.684616 -55.529037 -57.256733 -54.254982 -0.52149278 -88.925186
14698835000 -0.76959813 -107.85999 -57.913891 -56.660786 -57.428452 -56.532642 -0.4981176 -89.712112
14707830000 -0.77531242 -108.87011 -57.802307 -57.1824 -57.368923 -57.790649 -0.49753031 -90.451195
14716825000 -0.77239901 -109.83177 -57.606091 -60.122066 -57.299297 -60.946236 -0.52346402 -91.368622
14725820000 -0.77640092 -110.7858 -57.816967 -62.720978 -57.533722 -64.265999 -0.55818331 -92.439285
14734815000 -0.77540898 -111.77896 -58.010567 -64.000977 -57.803032 -65.342819 -0.57870227 -93.565346
14743810000 -0.77296865 -112.72783 -57.774239 -64.348999 -57.685547 -66.217728 -0.58746016 -94.721542
14752805000 -0.77618921 -113.63301 -57.769196 -67.617279 -57.688545 -68.815521 -0.57659876 -95.800667
14761800000 -0.78605819 -114.59583 -57.926304 -69.396957 -57.796959 -70.987335 -0.54615349 -96.688919
14770795000 -0.78768903 -115.60764 -57.957638 -71.213638 -57.969414 -72.837364 -0.53446925 -97.45607
14779790000 -0.78688872 -116.55568 -57.987865 -72.240707 -58.098846 -74.482391 -0.54655391 -98.309196
14788785000 -0.7908873 -117.50353 -57.976406 -73.753685 -58.136719 -75.356209 -0.57124555 -99.266319
14797780000 -0.78928071 -118.49129 -57.87265 -75.426765 -58.082344 -77.157059 -0.59931773 -100.32967
14806775000 -0.78695792 -119.39833 -57.775761 -77.789703 -58.138809 -79.173378 -0.6215083 -101.44816
14815770000 -0.79307544 -120.31658 -57.950771 -80.200417 -58.394032 -80.74189 -0.61560696 -102.5462
14824765000 -0.79991925 -121.28557 -58.06358 -81.206841 -58.412418 -81.50666 -0.58909899 -103.47009
14833760000 -0.8033691 -122.30578 -58.086552 -82.939995 -58.424377 -82.325806 -0.57427645 -104.25913
14842755000 -0.80094695 -123.26243 -58.241673 -83.573372 -58.529854 -83.19194 -0.57638532 -105.08497
14851750000 -0.80300009 -124.21068 -58.113377 -83.723106 -58.413399 -82.803154 -0.59634948 -105.9969
14860745000 -0.80086601 -125.20285 -58.083191 -85.426918 -58.296501 -84.555786 -0.63048351 -107.03155
14869740000 -0.7993784 -126.08998 -57.951897 -86.297699 -58.234936 -84.217125 -0.65910071 -108.22515
14878735000 -0.80555022 -126.98535 -57.889561 -88.878387 -57.995174 -86.099937 -0.66283607 -109.4037
14887730000 -0.81462646 -127.96407 -57.972515 -90.719009 -58.041004 -88.801514 -0.64211059 -110.40983
14896725000 -0.81813496 -128.95757 -58.134464 -91.011414 -58.21603 -89.639076 -0.62209493 -111.30003
14905720000 -0.8164739 -129.90984 -57.957405 -90.118759 -58.164906 -88.331711 -0.61172897 -112.10403
14914715000 -0.81852841 -130.8714 -57.569603 -91.672455 -57.64632 -88.666283 -0.62206805 -112.91346
14923710000 -0.81611872 -131.83751 -57.384075 -94.312569 -57.295135 -91.270668 -0.65227807 -113.82778
14932705000 -0.81593382 -132.7308 -57.26033 -98.176498 -57.234894 -95.093857 -0.68770355 -114.92876
14941700000 -0.82365352 -133.64201 -57.262444 -101.05581 -56.97871 -98.048325 -0.70607132 -116.10505
14950695000 -0.83257234 -134.61884 -57.399174 -104.30255 -57.087017 -102.79109 -0.70072931 -117.19221
14959690000 -0.83557951 -135.61295 -57.775452 -106.145 -57.400345 -105.50108 -0.68447459 -118.17937
14968685000 -0.83433902 -136.56876 -57.847172 -105.31408 -57.652191 -105.42243 -0.66775525 -119.05625
14977680000 -0.83391744 -137.54791 -57.560097 -106.51209 -57.387012 -105.97723 -0.66580671 -119.85755
14986675000 -0.82786679 -138.48642 -57.481205 -109.73656 -57.381241 -108.62686 -0.68781942 -120.73766
14995670000 -0.82926148 -139.36299 -57.442219 -112.58035 -57.248417 -111.54807 -0.71652842 -121.77401
15004665000 -0.83652973 -140.26982 -57.775928 -115.1549 -57.531738 -115.0836 -0.74212503 -122.88679
15013660000 -0.84398335 -141.20845 -57.968899 -115.16233 -57.742214 -115.74507 -0.75233603 -124.02988
15022655000 -0.84729195 -142.17729 -57.784512 -116.35297 -57.676197 -116.61984 -0.73873109 -125.10959
15031650000 -0.84864318 -143.13461 -57.884647 -119.52745 -57.672756 -118.4982 -0.71643382 -126.03313
15040645000 -0.84956133 -144.10684 -58.222683 -120.67857 -57.864258 -120.35453 -0.70215642 -126.83892
15049640000 -0.846955 -145.0536 -58.257816 -118.12385 -58.131126 -118.67497 -0.71361268 -127.66285
15058635000 -0.84781742 -145.95636 -57.728504 -118.74848 -57.746296 -118.7308 -0.73882622 -128.61272
15067630000 -0.85373932 -146.88129 -57.472054 -122.35565 -57.31839 -121.22308 -0.77114981 -129.64604
15076625000 -0.85956395 -147.8295 -57.388344 -126.51247 -57.207462 -124.54617 -0.78962439 -130.77296
15085620000 -0.86123681 -148.77341 -57.866325 -129.69724 -57.389797 -127.86461 -0.78810179 -131.89082
15094615000 -0.86213648 -149.74757 -58.191402 -129.59523 -57.669998 -129.34032 -0.76764941 -132.84726
15103610000 -0.86146379 -150.71338 -58.011673 -129.6386 -57.572704 -129.91681 -0.74969977 -133.66089
15112605000 -0.8584128 -151.64388 -58.06694 -132.13274 -57.532955 -131.73293 -0.75445193 -134.45134
15121600000 -0.86012906 -152.53972 -58.222549 -133.47433 -57.517559 -134.07129 -0.77779961 -135.33566
15130595000 -0.86611015 -153.45039 -58.129608 -133.93437 -57.56892 -137.01776 -0.81552964 -136.34723
15139590000 -0.86909127 -154.37715 -58.078918 -136.29019 -57.678852 -140.06123 -0.84460527 -137.53665
15148585000 -0.87281084 -155.31528 -58.164551 -138.68748 -57.864391 -142.1566 -0.85184354 -138.76709
15157580000 -0.87622482 -156.2704 -58.214802 -140.62726 -57.939873 -144.3485 -0.83194685 -139.83885
15166575000 -0.875669 -157.22095 -58.586914 -142.59703 -58.249264 -147.07797 -0.80710232 -140.707
15175570000 -0.87771809 -158.1433 -58.762585 -143.20789 -58.559277 -148.7372 -0.79588652 -141.45712
15184565000 -0.87901831 -159.0417 -58.786083 -143.66643 -58.878025 -149.68025 -0.80474943 -142.18817
15193560000 -0.88260365 -159.95627 -59.031933 -144.21065 -59.20388 -149.81288 -0.83888799 -143.05769
15202555000 -0.88625705 -160.8842 -59.002232 -142.45193 -59.414314 -148.89723 -0.88025987 -144.14026
15211550000 -0.89003903 -161.81946 -58.616699 -143.59108 -59.178795 -149.29871 -0.90192527 -145.35228
15220545000 -0.89269644 -162.77779 -58.642078 -147.39369 -59.149155 -150.6608 -0.89656734 -146.52078
15229540000 -0.8939302 -163.73119 -58.993732 -149.41235 -59.345238 -153.23219 -0.87312168 -147.51886
15238535000 -0.89549863 -164.666 -59.333904 -147.81544 -59.862572 -152.51733 -0.85129398 -148.34262
15247530000 -0.89679587 -165.58034 -58.995373 -146.73393 -59.888294 -149.61032 -0.84741879 -149.04973
15256525000 -0.8971526 -166.49747 -58.820648 -147.69525 -59.521015 -148.67999 -0.87126797 -149.79971
15265520000 -0.89982301 -167.39285 -58.662891 -147.84306 -59.396172 -149.57761 -0.909563 -150.76089
15274515000 -0.90384471 -168.29227 -58.413494 -149.28255 -59.19482 -150.06581 -0.94055772 -151.89893
15283510000 -0.90733224 -169.21231 -58.289715 -152.39973 -58.926662 -152.84866 -0.94884759 -153.09196
15292505000 -0.90936571 -170.13422 -58.281029 -154.57843 -59.081467 -154.81973 -0.93538344 -154.20271
15301500000 -0.91078651 -171.05701 -58.378551 -155.96187 -59.249813 -154.32712 -0.9112345 -155.12833
15310495000 -0.91397899 -171.98669 -58.111973 -156.92554 -58.693943 -154.67955 -0.89836025 -155.86899
15319490000 -0.91476792 -172.89671 -57.996822 -160.0499 -58.695034 -158.97021 -0.90981001 -156.60629
15328485000 -0.91636789 -173.81625 -58.082836 -162.97035 -58.811878 -161.28624 -0.9410274 -157.47096
15337480000 -0.91862214 -174.72815 -58.352661 -164.1891 -59.146606 -161.27354 -0.97663587 -158.52187
15346475000 -0.91949087 -175.62715 -58.335606 -165.13383 -58.992775 -161.96005 -0.99646342 -159.68324
15355470000 -0.92362309 -176.54803 -58.12009 -167.66194 -58.791725 -162.548 -0.99560094 -160.85284
15364465000 -0.92637998 -177.46577 -58.295776 -171.82188 -58.610779 -164.8972 -0.97541827 -161.87683
15373460000 -0.92786145 -178.38454 -58.790043 -173.58997 -58.951633 -169.05627 -0.95619023 -162.70209
15382455000 -0.92737174 -179.28577 -59.127228 -173.24158 -59.285305 -168.79239 -0.95373935 -163.44081
15391450000 -0.92863363 179.8136 -59.070068 -173.0459 -59.203205 -168.00529 -0.97634512 -164.21988
15400445000 -0.92739129 178.93875 -58.983097 -173.77542 -59.042313 -169.10768 -1.0075624 -165.14447
15409440000 -0.92881513 178.06178 -58.85006 -174.668 -58.852074 -169.5862 -1.0374867 -166.23131
15418435000 -0.9336102 177.15494 -58.81929 -178.04076 -58.575321 -171.95522 -1.0466104 -167.37445
15427430000 -0.93839103 176.24196 -58.893478 179.32304 -58.407925 -175.23602 -1.037208 -168.45532
15436425000 -0.93875086 175.33437 -59.222404 176.19745 -58.409859 -179.96683 -1.0203153 -169.38985
15445420000 -0.9402774 174.43591 -59.966259 175.75957 -58.947983 175.88176 -1.0118051 -170.20915
15454415000 -0.94036067 173.53783 -60.042332 179.2289 -59.677341 177.5399 -1.0203635 -170.98395
15463410000 -0.93979496 172.67012 -59.621506 179.24944 -59.445736 -179.54399 -1.0434822 -171.84196
15472405000 -0.94157398 171.81752 -59.51194 176.15512 -59.032562 178.70699 -1.0694587 -172.82016
15481400000 -0.9483732 170.93633 -59.71183 172.71098 -58.8955 174.17503 -1.0883569 -173.88017
15490395000 -0.95371485 170.03146 -60.244293 169.89424 -59.228352 168.78963 -1.0899013 -174.94472
15499390000 -0.95519698 169.11143 -61.079468 173.8372 -60.330917 169.05913 -1.0782723 -175.9332
15508385000 -0.95830286 168.18242 -60.484146 177.513 -60.350182 174.18689 -1.0678146 -176.81067
15517380000 -0.95678544 167.25072 -60.135654 176.24278 -60.011734 175.08411 -1.0694594 -177.61855
15526375000 -0.95138043 166.37384 -59.90749 174.24355 -59.55241 173.64545 -1.0833224 -178.43573
15535370000 -0.95409662 165.52612 -59.827652 170.64708 -59.342308 170.5154 -1.1069053 -179.34035
15544365000 -0.95757574 164.65891 -60.270199 168.4429 -59.527222 165.61365 -1.1283737 179.65378
15553360000 -0.95990056 163.7988 -60.50069 168.23744 -59.978771 163.96945 -1.137543 178.60501
15562355000 -0.9619168 162.92419 -60.927738 168.66023 -60.363079 163.46953 -1.1330433 177.57399
15571350000 -0.96522635 162.03447 -60.737389 171.35028 -60.698208 164.56396 -1.1224034 176.65512
15580345000 -0.96586519 161.12398 -60.221672 170.87778 -60.704391 165.46097 -1.118251 175.83168
15589340000 -0.96259367 160.27414 -59.911167 166.97667 -60.373192 164.86491 -1.1222885 175.06004
15598335000 -0.96622801 159.42429 -60.436676 164.51236 -60.562176 161.85008 -1.1400102 174.2341
15607330000 -0.9687131 158.575 -61.021339 163.74969 -60.879787 160.55562 -1.1645669 173.32176
15616325000 -0.97111934 157.7211 -61.102196 167.15729 -61.431713 161.15877 -1.1843487 172.28622
15625320000 -0.97498083 156.85942 -60.702587 168.82123 -61.407814 163.2364 -1.1873623 171.22481
15634315000 -0.97853309 155.9575 -60.353527 165.96272 -61.20084 161.97774 -1.1807178 170.20804
15643310000 -0.97960919 155.04942 -60.573925 163.6313 -61.539532 159.98999 -1.1730331 169.29803
15652305000 -0.97805548 154.16972 -60.813866 164.21686 -61.797218 161.82414 -1.1665703 168.46634
15661300000 -0.98143995 153.31401 -60.585125 164.68143 -61.645569 164.53162 -1.1729403 167.6895
15670295000 -0.98100674 152.43236 -60.435043 163.64909 -61.331318 163.11876 -1.1918491 166.86378
15679290000 -0.97992969 151.59262 -60.466335 162.52364 -61.391872 163.7877 -1.2130109 165.9402
15688285000 -0.98191404 150.75433 -60.210144 161.39561 -60.989826 164.43886 -1.2218391 164.94604
15697280000 -0.98390454 149.87148 -60.39357 159.00818 -61.012913 160.56679 -1.2247608 163.96709
15706275000 -0.98326236 148.99953 -60.569584 160.04025 -61.149208 160.55275 -1.2179043 163.04475
15715270000 -0.98431104 148.16643 -60.291115 158.43579 -60.995235 160.44975 -1.2099384 162.19772
15724265000 -0.98856813 147.30678 -60.480865 156.69388 -61.240585 157.98625 -1.2121451 161.42412
15733260000 -0.98597878 146.44519 -60.458084 157.17453 -61.167316 160.23624 -1.2288491 160.62726
15742255000 -0.98956186 145.62788 -60.429169 155.33675 -60.818661 158.65627 -1.2478224 159.73763
15751250000 -0.99068296 144.79907 -60.483486 152.99556 -60.85006 156.41826 -1.2629881 158.77715
15760245000 -0.99202585 143.92685 -60.913914 152.64127 -61.274612 154.14909 -1.2707692 157.77153
15769240000 -0.99197644 143.0677 -61.129665 153.65091 -61.551353 155.86732 -1.266791 156.80005
15778235000 -0.99413621 142.22993 -60.905865 154.02684 -61.250565 155.94377 -1.2558709 155.92365
15787230000 -0.99823225 141.34872 -61.180328 153.92929 -61.756611 154.81909 -1.2527062 155.1628
15796225000 -0.99537402 140.49933 -60.937916 156.57954 -61.771324 159.11035 -1.2665904 154.36592
15805220000 -0.99499154 139.68701 -60.654762 156.17174 -61.327232 160.10883 -1.2858992 153.50104
15814215000 -0.99746418 138.84821 -60.492809 154.63072 -61.018097 157.92606 -1.3048509 152.56239
15823210000 -0.99814528 137.99794 -60.515762 152.26833 -61.265297 158.09778 -1.3150928 151.54362
15832205000 -0.99899 137.17886 -60.744556 151.75829 -61.107716 157.27554 -1.3123181 150.53816
15841200000 -1.0040625 136.31451 -61.095074 153.0511 -61.352959 158.06976 -1.2947391 149.64874
15850195000 -1.0065782 135.42657 -60.759285 156.7943 -61.331844 161.66521 -1.2865518 148.89941
15859190000 -1.0036196 134.57066 -59.945229 155.92757 -60.474674 162.05092 -1.2909793 148.18549
15868185000 -1.0009087 133.75105 -59.654472 150.27419 -60.017632 158.04514 -1.3066523 147.43436
15877180000 -1.0014186 132.9283 -60.161022 147.81158 -60.274055 154.32175 -1.3305389 146.59041
15886175000 -0.99613357 132.11362 -60.537975 147.77055 -60.535358 153.91991 -1.3508152 145.6216
15895170000 -0.9982518 131.36044 -60.773952 148.24683 -60.705021 155.64839 -1.3552783 144.57207
15904165000 -1.0061419 130.55481 -60.805645 151.15417 -60.609951 158.94339 -1.3447306 143.60982
15913160000 -1.0078568 129.67917 -60.419147 152.00212 -60.03101 158.92935 -1.3359338 142.7543
15922155000 -1.00753 128.83806 -60.209213 149.88699 -59.710396 156.20309 -1.3329629 141.9579
15931150000 -1.0073328 128.01205 -60.578934 150.8988 -60.10915 155.46016 -1.3356307 141.2123
15940145000 -1.0065207 127.14491 -60.133522 154.32298 -59.784008 159.83392 -1.3522074 140.4278
15949140000 -0.99903333 126.35844 -59.441643 153.2785 -59.13607 159.39989 -1.3697982 139.55708
15958135000 -1.0006187 125.6174 -59.084469 150.9446 -58.508835 157.81888 -1.3763475 138.59573
15967130000 -1.0087998 124.80006 -59.090298 147.03008 -58.110409 153.17897 -1.3722655 137.69949
15976125000 -1.0100334 123.93211 -59.447277 147.23012 -58.227016 150.7525 -1.370263 136.85706
15985120000 -1.0096332 123.11755 -59.187801 148.59431 -58.061375 149.33891 -1.3672369 136.04082
15994115000 -1.0125135 122.27766 -58.938103 147.07864 -57.965923 147.08418 -1.3697872 135.28596
16003110000 -1.0084275 121.41842 -59.148602 146.21111 -58.277775 145.07062 -1.3854706 134.51738
16012105000 -1.0024548 120.62076 -59.090595 150.01147 -58.530624 148.16367 -1.4012692 133.64365
16021100000 -1.0026002 119.84974 -58.064915 149.56441 -57.530018 148.35034 -1.4102281 132.68991
16030095000 -1.0072699 119.05444 -57.94965 143.72064 -57.205425 143.35846 -1.4084456 131.77946
16039090000 -1.0062035 118.23661 -58.39101 142.91606 -57.483112 140.6375 -1.4054149 130.90402
16048085000 -1.0060649 117.43998 -58.464886 145.36061 -57.841824 140.21326 -1.3992513 130.05972
16057080000 -1.011955 116.6198 -58.126411 147.22487 -57.809093 141.95343 -1.3958964 129.30585
16066075000 -1.0078434 115.773 -57.432144 146.94548 -57.502384 141.44456 -1.4069916 128.55901
16075070000 -1.0008459 115.01517 -57.015041 145.62953 -57.48468 141.10596 -1.4206842 127.72234
16084065000 -1.0045534 114.25058 -56.645321 142.72212 -57.157482 140.8221 -1.4270149 126.85651
16093060000 -1.0068811 113.42172 -56.533199 139.95866 -56.972221 139.60226 -1.4287599 126.02494
16102055000 -1.0050683 112.62077 -56.588772 139.35385 -56.825691 138.92154 -1.4325384 125.15248
16111050000 -1.005187 111.84485 -56.160919 139.23846 -56.54594 139.04564 -1.4301183 124.28611
16120045000 -1.0098106 111.03028 -55.692902 135.74809 -56.187496 136.03094 -1.428816 123.49623
16129040000 -1.00544 110.20628 -55.750732 132.7115 -56.193043 133.80832 -1.4372146 122.72411
16138035000 -1.0008931 109.4502 -55.755356 131.57135 -56.158436 133.40398 -1.4453373 121.88179
16147030000 -1.0060028 108.67917 -55.559097 130.34406 -55.952507 132.20561 -1.4483769 121.05284
16156025000 -1.0076199 107.86415 -55.407036 127.95111 -55.865673 131.22578 -1.4495907 120.2123
16165020000 -1.0036137 107.05923 -55.303856 126.19743 -55.582573 131.36882 -1.4549816 119.37173
16174015000 -1.0064405 106.30041 -55.104202 123.88155 -55.106686 129.68459 -1.4522911 118.53015
16183010000 -1.0075957 105.50826 -55.212685 121.74088 -54.960697 126.41216 -1.4522846 117.76142
16192005000 -1.0006428 104.69632 -55.151493 120.50973 -54.917255 123.46316 -1.460573 116.9684
16201000000 -0.99948752 103.97348 -55.250443 118.50668 -55.092781 121.51001 -1.4653193 116.1258
16209995000 -1.0070374 103.17525 -55.358826 119.33107 -55.158264 122.06104 -1.4692045 115.35117
16218990000 -1.0041784 102.35307 -54.928772 119.99279 -54.797268 122.64889 -1.4723343 114.55771
16227985000 -1.0016383 101.58975 -54.586597 116.4621 -54.364239 119.95995 -1.4762912 113.69743
16236980000 -0.99890494 100.8386 -54.69371 114.08145 -54.343204 117.58987 -1.4763795 112.88099
16245975000 -1.0012103 100.02731 -54.631565 113.29124 -54.269783 115.89942 -1.4795395 112.07668
16254970000 -0.99656177 99.263741 -54.527405 111.67919 -54.170525 114.71262 -1.483597 111.25566
16263965000 -0.99755377 98.529457 -54.403988 109.64636 -53.898785 112.36194 -1.4818063 110.42535
16272960000 -1.0033851 97.719696 -54.608368 107.21095 -54.009125 108.84983 -1.4814465 109.68269
16281955000 -0.99828565 96.906403 -54.780769 107.41469 -54.295803 108.2669 -1.4839489 108.93272
16290950000 -0.99177766 96.164322 -54.733746 107.32339 -54.343983 108.79955 -1.4884012 108.12286
16299945000 -0.99304676 95.411644 -54.543274 108.1282 -54.125313 110.53322 -1.4914881 107.32883
16308940000 -0.99413812 94.65992 -54.038891 106.99139 -53.442295 109.36176 -1.4997661 106.52003
16317935000 -0.99005765 93.925713 -53.988895 103.78212 -53.315289 105.09502 -1.5060452 105.64636
16326930000 -0.99880886 93.189285 -53.981556 102.82484 -53.348846 102.99548 -1.5016803 104.78957
16335925000 -1.0051596 92.355484 -53.949566 101.21484 -53.2878 101.69369 -1.4939543 104.00099
16344920000 -1.0003172 91.519196 -53.958054 100.45101 -53.110977 99.919037 -1.4910396 103.25765
16353915000 -0.99382669 90.759895 -53.902031 100.64007 -53.185677 98.442093 -1.4888949 102.53071
16362910000 -0.99345475 89.96209 -53.574715 100.27802 -53.064171 97.363815 -1.4903362 101.81733
16371905000 -0.98713303 89.185425 -53.420563 99.549103 -53.060047 97.022705 -1.5036736 101.06583
16380900000 -0.98410648 88.487068 -52.931217 99.726006 -52.649529 97.110718 -1.5137483 100.20172
16389895000 -0.98915678 87.773193 -52.540573 96.723381 -52.261589 94.217377 -1.509037 99.352638
16398890000 -0.99717754 86.982819 -52.293713 94.05085 -52.088387 91.501961 -1.5052001 98.567169
16407885000 -0.98960704 86.188492 -52.166496 91.218628 -52.042683 88.437622 -1.4999322 97.79039
16416880000 -0.9860366 85.461472 -52.132706 88.641975 -52.132336 86.387642 -1.493644 97.060974
16425875000 -0.98460752 84.679192 -52.16069 87.297676 -52.147018 85.787369 -1.4928554 96.391411
16434870000 -0.97996926 83.927269 -52.073208 86.284058 -51.985283 85.03463 -1.506102 95.655449
16443865000 -0.97875106 83.242004 -51.819824 85.512627 -51.769455 83.598145 -1.516766 94.820961
16452860000 -0.98589528 82.510124 -51.468582 83.431709 -51.487694 81.45842 -1.5168332 94.00399
16461855000 -0.99104327 81.705917 -51.247341 80.549202 -51.329983 79.317902 -1.5168005 93.20282
16470850000 -0.9847579 80.94136 -51.115166 77.201263 -51.111507 76.313011 -1.5126349 92.372002
16479845000 -0.9811849 80.188576 -51.167961 73.522362 -51.117855 72.858978 -1.502912 91.630478
16488840000 -0.97687638 79.394386 -51.38726 71.709755 -51.316956 70.360809 -1.5013232 90.954338
16497835000 -0.96600878 78.656296 -51.398491 72.038162 -51.419495 70.112785 -1.5098176 90.259247
16506830000 -0.96919227 77.969917 -51.140537 70.651421 -51.30238 69.33223 -1.5133827 89.478699
16515825000 -0.97257662 77.239258 -50.9175 68.692154 -51.056461 67.745872 -1.5153347 88.725121
16524820000 -0.97284675 76.471336 -50.785854 66.098282 -50.909828 65.559746 -1.5211594 87.921295
16533815000 -0.96856105 75.741196 -50.620113 63.368679 -50.754822 63.032948 -1.523065 87.102058
16542810000 -0.96782893 75.002701 -50.566925 60.154564 -50.717701 60.146484 -1.5107793 86.345009
16551805000 -0.96672404 74.20932 -50.585495 58.270966 -50.750397 58.352436 -1.5090144 85.63781
16560800000 -0.95794135 73.501335 -50.589264 56.110756 -50.733147 56.646248 -1.5111165 84.918846
16569795000 -0.96168971 72.782852 -50.593876 54.118423 -50.696423 54.312519 -1.5101664 84.181786
16578790000 -0.96250671 72.034714 -50.585136 52.470722 -50.693306 52.741272 -1.5134391 83.489525
16587785000 -0.95962614 71.277382 -50.489742 50.875664 -50.615376 51.449535 -1.5207211 82.698944
16596780000 -0.95479608 70.594383 -50.385048 48.466354 -50.416676 49.723454 -1.5231242 81.861366
16605775000 -0.95892745 69.833 -50.35017 45.29126 -50.308746 46.84993 -1.5132697 81.082405
16614770000 -0.95409113 69.065422 -50.455032 42.860714 -50.272202 43.817734 -1.5077218 80.339081
16623765000 -0.94647652 68.3536 -50.609253 40.862053 -50.425407 41.458172 -1.4992737 79.595375
16632760000 -0.9473322 67.662277 -50.647846 39.247288 -50.445156 39.779373 -1.4938207 78.92907
16641755000 -0.94772273 66.906631 -50.766483 37.871422 -50.460854 37.504681 -1.4945247 78.250099
16650750000 -0.94345629 66.169342 -50.826862 36.930908 -50.505733 36.275078 -1.508045 77.505959
16659745000 -0.94097114 65.473595 -50.739777 36.553207 -50.498386 35.086555 -1.5116547 76.680099
16668740000 -0.94463533 64.733955 -50.501457 35.115959 -50.357971 33.319332 -1.5132799 75.846405
16677735000 -0.94104022 63.966217 -50.501904 32.480675 -50.400131 30.178791 -1.5060375 75.030998
16686730000 -0.93678898 63.262341 -50.450825 31.167894 -50.513817 28.616026 -1.4891868 74.261856
16695725000 -0.9379499 62.528259 -50.439495 28.802082 -50.55534 27.090656 -1.4765286 73.614975
16704720000 -0.93867183 61.756474 -50.438236 27.532127 -50.55077 25.555695 -1.4807221 73.018066
16713715000 -0.93033046 61.025555 -50.3992 25.919729 -50.529781 23.964779 -1.4881715 72.338814
16722710000 -0.92867565 60.339149 -50.243526 24.236301 -50.549175 22.696917 -1.496388 71.597992
16731705000 -0.93018425 59.600204 -50.207653 22.419016 -50.524677 21.314293 -1.5041631 70.797531
16740700000 -0.92325008 58.881226 -50.043877 20.748423 -50.403316 20.586426 -1.5005841 69.951523
16749695000 -0.92637801 58.196114 -49.884933 17.82181 -50.189281 18.349085 -1.4844688 69.13459
16758690000 -0.9262284 57.454029 -49.861004 14.047339 -50.085487 14.633564 -1.4684559 68.427612
16767685000 -0.92618161 56.672318 -50.11478 11.46503 -50.265213 12.031734 -1.4667299 67.771599
16776680000 -0.91948128 55.932377 -50.269596 9.9314499 -50.417595 10.244203 -1.4749833 67.085602
16785675000 -0.91890103 55.253613 -50.330952 8.7189379 -50.484428 9.2630911 -1.4851553 66.344437
16794670000 -0.91764486 54.507374 -50.294731 7.3758831 -50.455681 8.1358814 -1.4970372 65.571457
16803665000 -0.9110691 53.822216 -50.246742 5.4498982 -50.364464 6.0028653 -1.4967376 64.69101
16812660000 -0.9116981 53.150787 -50.291225 2.9347954 -50.403591 3.2976449 -1.4782419 63.860226
16821655000 -0.9162432 52.440903 -50.427353 0.73321956 -50.651093 1.6617054 -1.4596983 63.143494
16830650000 -0.91829079 51.645119 -50.463711 -0.010555116 -50.644325 1.4802999 -1.4492301 62.504112
16839645000 -0.91163808 50.922604 -50.355732 -2.1060045 -50.457699 0.075873561 -1.4478334 61.8764
16848640000 -0.91218418 50.232491 -50.350044 -5.1592822 -50.331131 -2.4466784 -1.4596363 61.273869
16857635000 -0.90824503 49.509995 -50.527298 -7.586122 -50.333775 -4.9612465 -1.4780127 60.56012
16866630000 -0.89439452 48.806458 -50.758541 -8.650445 -50.439495 -7.0734978 -1.4877499 59.707935
16875625000 -0.90011817 48.132748 -50.754749 -9.1617012 -50.473015 -8.5562248 -1.4730402 58.833885
16884620000 -0.90423548 47.390968 -50.701027 -10.592104 -50.452435 -10.282767 -1.4532731 58.054951
16893615000 -0.90263391 46.63129 -50.64806 -12.315986 -50.39999 -11.89235 -1.4331673 57.370461
16902610000 -0.89294696 45.922909 -50.619629 -13.767761 -50.263222 -14.299434 -1.4223365 56.787697
16911605000 -0.89146459 45.19199 -50.56797 -16.130079 -50.276424 -17.543653 -1.4329218 56.251564
16920600000 -0.88413912 44.451874 -50.57872 -18.69735 -50.442978 -20.457624 -1.4588861 55.619972
16929595000 -0.87361288 43.791233 -50.693626 -20.378397 -50.660629 -22.517483 -1.4769746 54.819492
16938590000 -0.87657732 43.128475 -50.801552 -21.920311 -50.817104 -23.967001 -1.4742006 53.912487
16947585000 -0.88138133 42.422855 -50.787285 -23.269413 -50.866989 -25.584352 -1.4547745 53.03751
16956580000 -0.8833136 41.686081 -50.795906 -25.335075 -51.037418 -27.474726 -1.4270782 52.217937
16965575000 -0.88098878 40.950157 -50.885025 -27.45751 -51.186062 -28.701794 -1.401695 51.563549
16974570000 -0.87945157 40.206825 -50.962048 -29.550066 -51.24572 -30.208609 -1.3982118 51.063702
16983565000 -0.8726083 39.478695 -51.098789 -31.45434 -51.375504 -31.928741 -1.4192756 50.535793
16992560000 -0.86521029 38.834457 -51.2005 -32.868912 -51.55444 -33.166683 -1.4408295 49.851166
17001555000 -0.87046003 38.174889 -51.284378 -34.707657 -51.559006 -34.14539 -1.4550703 49.046013
17010550000 -0.87426913 37.465 -51.455837 -36.54961 -51.636566 -35.463051 -1.447474 48.142826
17019545000 -0.87309885 36.720844 -51.611816 -37.182438 -51.744129 -36.44685 -1.4236839 47.241051
17028540000 -0.87015766 36.001133 -51.603729 -38.056564 -51.6567 -37.528454 -1.3922439 46.500904
17037535000 -0.86685693 35.250343 -51.597206 -40.295521 -51.653297 -39.657272 -1.3791034 45.979568
17046530000 -0.85759652 34.529705 -51.69101 -41.599346 -51.781044 -41.3013 -1.3891817 45.480186
17055525000 -0.84957582 33.879581 -51.676208 -42.859459 -51.851707 -42.608337 -1.4095227 44.917801
17064520000 -0.85404438 33.199081 -51.664127 -44.978096 -51.774025 -44.542625 -1.4309146 44.207874
17073515000 -0.85403997 32.493263 -51.811798 -46.994133 -51.950623 -46.266392 -1.440345 43.303329
17082510000 -0.85151219 31.792599 -51.971195 -48.409054 -52.098713 -47.388729 -1.4201375 42.306377
17091505000 -0.85126245 31.105751 -52.02948 -48.991894 -52.12685 -48.036728 -1.3829379 41.486382
17100500000 -0.85134906 30.349625 -52.040356 -50.286369 -52.127308 -49.537682 -1.3585038 40.874718
17109495000 -0.8443352 29.640688 -52.061142 -51.631241 -52.178467 -51.084442 -1.3514366 40.371113
17118490000 -0.84164214 28.967339 -52.166145 -53.060684 -52.263031 -52.43536 -1.3682346 39.908051
17127485000 -0.84081084 28.270231 -52.07848 -53.682682 -52.147465 -52.68428 -1.3951254 39.335659
17136480000 -0.83962095 27.543127 -51.996326 -55.704361 -52.053337 -55.398758 -1.4168289 38.53339
17145475000 -0.83742803 26.870846 -52.036594 -58.261631 -52.176388 -57.520241 -1.4119797 37.562302
17154470000 -0.8391279 26.170559 -52.211254 -60.295536 -52.336243 -59.777012 -1.3839755 36.63044
17163465000 -0.83958387 25.410055 -52.389732 -61.316193 -52.547836 -60.771282 -1.3554002 35.900963
17172460000 -0.83478856 24.719959 -52.37875 -62.424957 -52.610249 -62.055855 -1.3324794 35.340485
17181455000 -0.83671993 24.025675 -52.502441 -64.806694 -52.82906 -63.702797 -1.3285623 34.926243
17190450000 -0.83439326 23.312056 -52.659882 -65.842781 -52.963749 -64.236191 -1.3523222 34.467098
17199445000 -0.82847136 22.604345 -52.546741 -67.557541 -52.872887 -65.245071 -1.3804222 33.765575
17208440000 -0.82639676 21.95344 -52.693413 -70.729134 -52.839954 -67.155464 -1.3893692 32.859985
17217435000 -0.82885796 21.260952 -53.022083 -73.188988 -53.032402 -69.64119 -1.3773861 31.891027
17226430000 -0.82572174 20.541094 -53.452236 -73.781494 -53.297192 -70.386131 -1.3509251 30.986643
17235425000 -0.82449347 19.853312 -53.669216 -73.581207 -53.376171 -70.905518 -1.3169479 30.298386
17244420000 -0.81896478 19.13122 -53.81044 -73.599083 -53.492077 -72.008072 -1.3007069 29.838219
17253415000 -0.8210783 18.41254 -53.917034 -73.115456 -53.571892 -72.230965 -1.3130896 29.444592
17262410000 -0.81245363 17.725149 -53.702785 -73.595474 -53.503155 -73.369339 -1.3348449 28.881483
17271405000 -0.81130117 17.084921 -53.670734 -75.36161 -53.611477 -74.177086 -1.356137 28.122391
17280400000 -0.81463581 16.410658 -53.750927 -76.269173 -53.535816 -74.92907 -1.3612423 27.168247
17289395000 -0.81058013 15.726075 -53.66888 -77.451645 -53.457382 -77.15596 -1.3447384 26.189508
17298390000 -0.81123 15.038453 -53.922489 -78.820847 -53.767616 -78.647934 -1.3102171 25.368195
17307385000 -0.81240463 14.328898 -54.005898 -78.15184 -53.908131 -78.494286 -1.2813885 24.801237
17316380000 -0.81070864 13.598756 -53.804821 -78.45826 -53.76701 -78.142288 -1.2768108 24.393047
17325375000 -0.80710262 12.880341 -53.565403 -80.107796 -53.508179 -79.951668 -1.287776 23.941044
17334370000 -0.80211318 12.207963 -53.565052 -82.756454 -53.577591 -82.466484 -1.3054005 23.342043
17343365000 -0.80133015 11.51713 -53.620281 -84.718987 -53.585442 -83.851646 -1.3234626 22.529554
17352360000 -0.7965588 10.845961 -53.756855 -87.341988 -53.692928 -86.109093 -1.3243235 21.546974
17361355000 -0.79490167 10.171711 -54.078613 -88.842033 -53.967377 -87.719711 -1.3008211 20.615702
17370350000 -0.80007267 9.4701567 -54.198856 -88.918251 -54.006939 -88.615517 -1.2702661 19.936996
17379345000 -0.80091304 8.760746 -54.24828 -89.439087 -54.245342 -88.974426 -1.2514774 19.464979
17388340000 -0.79742217 8.0423994 -54.28175 -89.90448 -54.194393 -88.996819 -1.2512529 19.038578
17397335000 -0.79716963 7.3450232 -54.326633 -91.294853 -54.179356 -90.352013 -1.2699931 18.543959
17406330000 -0.79544008 6.6477313 -54.394032 -92.185936 -54.161922 -91.459038 -1.2924291 17.809004
17415325000 -0.78873682 5.9703369 -54.43948 -92.917976 -54.218937 -92.927895 -1.3054414 16.850773
17424320000 -0.7891916 5.3022542 -54.400993 -93.927193 -54.163956 -94.314735 -1.2920415 15.825897
17433315000 -0.79168117 4.6184821 -54.56636 -94.850037 -54.305199 -95.69043 -1.2637111 14.985743
17442310000 -0.79146624 3.8902133 -54.515423 -94.627296 -54.322414 -96.743324 -1.2297735 14.385372
17451305000 -0.78837246 3.1792321 -54.304462 -96.188919 -54.478336 -98.190399 -1.2084522 13.965816
17460300000 -0.78560036 2.4631228 -54.319599 -98.307747 -54.597363 -99.301689 -1.2151074 13.618509
17469295000 -0.78173059 1.7454981 -54.421108 -99.301941 -54.68111 -98.88784 -1.240013 13.072248
17478290000 -0.77700269 1.0675235 -54.357784 -100.61291 -54.506348 -99.766228 -1.2636913 12.245473
17487285000 -0.77572495 0.40930477 -54.351181 -101.50498 -54.473095 -100.75085 -1.2697438 11.266866
17496280000 -0.77957481 -0.27294844 -54.25481 -103.10466 -54.375343 -102.1089 -1.254766 10.316264
17505275000 -0.77910489 -0.97596359 -54.020611 -105.60364 -54.150436 -104.19831 -1.2241554 9.531662
17514270000 -0.77667397 -1.6673425 -54.223682 -109.49364 -54.272709 -108.41071 -1.1932237 9.0099659
17523265000 -0.77860135 -2.3876944 -54.820042 -111.08926 -54.690239 -109.69612 -1.1858382 8.6262493
17532260000 -0.77471924 -3.1111298 -55.009594 -110.16544 -54.889374 -109.5815 -1.202109 8.144208
17541255000 -0.7719636 -3.7948861 -54.809223 -110.96832 -54.695557 -110.16592 -1.2229834 7.4444623
17550250000 -0.77212501 -4.4683723 -54.757347 -113.29596 -54.70525 -113.26357 -1.2376431 6.5567694
17559245000 -0.77272093 -5.162149 -55.068932 -115.21778 -55.016472 -115.50933 -1.2347565 5.5880022
17568240000 -0.76971155 -5.863945 -55.416428 -115.22053 -55.320019 -115.82892 -1.2088038 4.6909585
17577235000 -0.76993901 -6.5594234 -55.365265 -115.38158 -55.417461 -116.79121 -1.1744336 4.0962391
17586230000 -0.77021533 -7.2647095 -55.37442 -115.6829 -55.628902 -117.08833 -1.1519359 3.7219098
17595225000 -0.76419747 -7.9683046 -55.331299 -117.2418 -55.71323 -117.18372 -1.1563389 3.3339379
17604220000 -0.76303554 -8.6459999 -55.342178 -119.24329 -55.734207 -118.02151 -1.1731006 2.7733245
17613215000 -0.76494265 -9.3308077 -55.527943 -120.79234 -55.794853 -118.9187 -1.1988699 1.9807903
17622210000 -0.76673174 -10.028404 -55.633896 -121.71005 -55.895775 -119.68918 -1.214183 1.0083354
17631205000 -0.76409101 -10.732947 -55.752285 -123.61916 -56.176151 -120.886 -1.2001849 0.024250271
17640200000 -0.76209539 -11.426589 -56.096447 -124.18738 -56.401379 -119.69651 -1.1661386 -0.72938824
17649195000 -0.75834364 -12.141317 -56.214718 -124.45728 -56.271832 -119.42558 -1.1328803 -1.2350014
17658190000 -0.7517029 -12.838357 -56.466202 -124.88254 -56.386429 -120.59112 -1.1152768 -1.6035455
17667185000 -0.75234193 -13.515877 -56.693459 -124.73495 -56.503445 -120.02757 -1.1213638 -2.025295
17676180000 -0.75273657 -14.18175 -56.897247 -123.93444 -56.667679 -119.03133 -1.149281 -2.6467731
17685175000 -0.75081629 -14.870992 -57.058762 -122.28062 -56.461399 -117.72432 -1.1791526 -3.5498607
17694170000 -0.75280184 -15.551344 -56.77948 -119.81506 -55.995438 -117.07378 -1.186128 -4.5806427
17703165000 -0.75360972 -16.253695 -56.393852 -120.62923 -55.621784 -119.78794 -1.1648887 -5.4981976
17712160000 -0.75319558 -16.985538 -56.17437 -121.99567 -55.673515 -122.95604 -1.1291888 -6.1781664
17721155000 -0.75121725 -17.709435 -56.298332 -123.39673 -55.891342 -123.69026 -1.0959617 -6.6311026
17730150000 -0.7506249 -18.427668 -56.241447 -122.4118 -55.896126 -122.92059 -1.0842065 -7.0142679
17739145000 -0.75099045 -19.124603 -55.965721 -122.06126 -55.520027 -122.78371 -1.1037815 -7.5066237
17748140000 -0.74669856 -19.817728 -55.50716 -124.41461 -55.206291 -125.07546 -1.1331146 -8.2690954
17757135000 -0.74443561 -20.476141 -55.584499 -127.52505 -55.198593 -127.85487 -1.1522697 -9.2015162
17766130000 -0.74816215 -21.161285 -55.656551 -128.97101 -55.301842 -128.77934 -1.1473897 -10.183645
17775125000 -0.74931556 -21.879992 -55.487236 -128.97723 -55.07534 -129.57321 -1.1192272 -10.970183
17784120000 -0.74768955 -22.58408 -55.214874 -130.64902 -54.854053 -131.74821 -1.0798815 -11.540739
17793115000 -0.74840575 -23.307413 -55.193455 -133.43196 -54.809795 -134.23543 -1.053569 -11.912386
17802110000 -0.74556959 -24.024172 -55.268421 -135.31058 -54.923409 -136.72272 -1.0597087 -12.309126
17811105000 -0.74183023 -24.727623 -55.372192 -137.4705 -55.017651 -138.69397 -1.0875833 -12.933254
17820100000 -0.73885196 -25.389668 -55.594067 -139.73434 -55.136654 -140.714 -1.1172665 -13.765431
17829095000 -0.74183178 -26.07399 -55.828201 -138.85812 -55.256607 -140.88982 -1.1285745 -14.737242
17838090000 -0.74080837 -26.74332 -55.634552 -138.27788 -55.100552 -141.88266 -1.1140358 -15.663963
17847085000 -0.74246961 -27.459843 -55.422386 -140.52812 -55.069145 -144.52908 -1.0787309 -16.425602
17856080000 -0.74413174 -28.165567 -55.636108 -142.37538 -55.35873 -146.72809 -1.0389372 -16.92878
17865075000 -0.74297303 -28.89991 -55.594299 -142.72809 -55.507595 -148.00467 -1.0240074 -17.321623
17874070000 -0.738388 -29.617945 -55.522152 -145.36621 -55.618507 -149.84323 -1.0344281 -17.815063
17883065000 -0.73539346 -30.298737 -55.685417 -146.99887 -55.87442 -151.51651 -1.0619358 -18.450706
17892060000 -0.73726273 -30.995686 -55.711525 -147.00139 -56.104069 -152.03833 -1.0863987 -19.292025
17901055000 -0.73731947 -31.706467 -55.639793 -148.23543 -56.338215 -151.91133 -1.0881956 -20.214127
17910050000 -0.73961556 -32.426952 -55.63855 -149.94748 -56.280205 -151.9297 -1.0670362 -21.072382
17919045000 -0.74336159 -33.162418 -55.787666 -150.8437 -56.336769 -152.2717 -1.030416 -21.74361
17928040000 -0.74167913 -33.923115 -55.739681 -150.88406 -56.368942 -152.81461 -1.0080184 -22.226545
17937035000 -0.73744678 -34.667599 -55.612213 -152.69968 -56.410625 -153.46779 -1.0051538 -22.70529
17946030000 -0.73552924 -35.365757 -55.689098 -154.3042 -56.433067 -152.42767 -1.0206964 -23.251667
17955025000 -0.73175967 -36.059048 -55.603802 -155.29349 -56.137409 -153.57895 -1.0464605 -23.991516
17964020000 -0.73097205 -36.726906 -55.528282 -157.67397 -55.929844 -156.2941 -1.0597837 -24.858034
17973015000 -0.73384434 -37.401184 -55.77158 -159.33679 -56.24622 -157.75642 -1.0542655 -25.743141
17982010000 -0.73723018 -38.104637 -55.726646 -159.99919 -56.300976 -156.9509 -1.0257328 -26.504107
17991005000 -0.73997188 -38.829647 -55.763359 -161.27449 -56.060951 -157.39249 -0.99421495 -27.082008
18000000000 -0.7403 -39.562759 -55.828205 -162.20695 -55.959007 -158.56386 -0.97277158 -27.551823
