! hatab_megtron7_step30_7p5mm: multiline TRL calibrated (TUGMultilineTRL, scikit-rf 2.1.0)
! raw data ZiadHatab/verification-multiline-trl-calibration @ 021e735, mean of the repeated sweeps
! reference impedance: characteristic impedance of the 94 um 50 Ohm line,
! NOT 50 Ohm; the R value below is a placeholder required by the format
# Hz S RI R 50
1000000000.000000 -4.713878763e-02 -1.398797743e-01 +9.265734553e-01 -3.195228345e-01 +9.275777931e-01 -3.178760012e-01 -5.336620903e-02 -1.420849373e-01
1500000000.000000 -9.707224681e-02 -1.931922680e-01 +8.525056741e-01 -4.561003471e-01 +8.540738575e-01 -4.533605907e-01 -1.086591378e-01 -1.862090808e-01
2000000000.000000 -1.645026259e-01 -2.282660178e-01 +7.573487917e-01 -5.708648365e-01 +7.595465593e-01 -5.664500506e-01 -1.761282168e-01 -2.105427924e-01
2500000000.000000 -2.251938677e-01 -2.352784968e-01 +6.553568655e-01 -6.643025416e-01 +6.537866758e-01 -6.651368641e-01 -2.496133323e-01 -2.177684524e-01
3000000000.000000 -2.860977036e-01 -2.311593176e-01 +5.426845514e-01 -7.369806715e-01 +5.429665983e-01 -7.369154873e-01 -3.176198345e-01 -2.055100206e-01
3500000000.000000 -3.474945356e-01 -2.159809483e-01 +4.262712982e-01 -7.906343894e-01 +4.258040966e-01 -7.901439910e-01 -3.752392513e-01 -1.694186934e-01
4000000000.000000 -4.012509288e-01 -1.823702578e-01 +3.124367000e-01 -8.268064995e-01 +3.124918512e-01 -8.258304175e-01 -4.218672368e-01 -1.222643445e-01
4500000000.000000 -4.379707867e-01 -1.355584309e-01 +1.993909827e-01 -8.487092766e-01 +1.986860472e-01 -8.483559947e-01 -4.576244751e-01 -6.706227773e-02
5000000000.000000 -4.603364707e-01 -8.338126568e-02 +8.795677960e-02 -8.597223762e-01 +8.702469788e-02 -8.598133027e-01 -4.766298316e-01 -7.398862845e-03
5500000000.000000 -4.745273353e-01 -3.025298392e-02 -2.284716821e-02 -8.586554066e-01 -2.342757642e-02 -8.585593710e-01 -4.817048293e-01 +5.572609288e-02
6000000000.000000 -4.802686545e-01 +2.791729961e-02 -1.311172640e-01 -8.472504695e-01 -1.327540157e-01 -8.465136132e-01 -4.679781922e-01 +1.148927765e-01
6500000000.000000 -4.653744880e-01 +8.753966212e-02 -2.368364908e-01 -8.264295556e-01 -2.369568559e-01 -8.256495496e-01 -4.465832763e-01 +1.724639713e-01
7000000000.000000 -4.391101758e-01 +1.448959163e-01 -3.421657996e-01 -7.935510245e-01 -3.428429203e-01 -7.922859004e-01 -4.130012994e-01 +2.229469392e-01
7500000000.000000 -3.999656736e-01 +1.927613235e-01 -4.467853046e-01 -7.484385650e-01 -4.469402458e-01 -7.467012753e-01 -3.685537846e-01 +2.615694606e-01
8000000000.000000 -3.545617782e-01 +2.292688571e-01 -5.484107483e-01 -6.904349737e-01 -5.487962887e-01 -6.891091961e-01 -3.124888532e-01 +2.860850202e-01
8500000000.000000 -2.965319314e-01 +2.578674100e-01 -6.465709286e-01 -6.196547972e-01 -6.473548643e-01 -6.185037229e-01 -2.549361580e-01 +3.006920858e-01
9000000000.000000 -2.284586029e-01 +2.717882613e-01 -7.382267135e-01 -5.319576139e-01 -7.386003777e-01 -5.306851775e-01 -1.983026211e-01 +3.010081039e-01
9500000000.000000 -1.591921048e-01 +2.638829006e-01 -8.194487393e-01 -4.276374737e-01 -8.197682459e-01 -4.263503322e-01 -1.413028874e-01 +2.838893866e-01
10000000000.000000 -9.857228905e-02 +2.433846384e-01 -8.837457459e-01 -3.055132038e-01 -8.856820721e-01 -3.052555500e-01 -9.330004215e-02 +2.522305063e-01
10500000000.000000 -4.353458086e-02 +2.055971983e-01 -9.321319996e-01 -1.717822263e-01 -9.335988284e-01 -1.707310505e-01 -5.402286996e-02 +2.081852543e-01
11000000000.000000 +3.157357822e-04 +1.541157241e-01 -9.581114819e-01 -2.728754268e-02 -9.577145554e-01 -2.577822357e-02 -2.698071672e-02 +1.549547112e-01
11500000000.000000 +2.386166711e-02 +9.259947059e-02 -9.576622264e-01 +1.226253240e-01 -9.574162656e-01 +1.239978463e-01 -1.693844428e-02 +1.002362901e-01
12000000000.000000 +2.630838398e-02 +2.484234024e-02 -9.290577176e-01 +2.722420805e-01 -9.287798496e-01 +2.741008952e-01 -2.692994964e-02 +4.511861235e-02
12500000000.000000 +5.977222029e-03 -3.506548799e-02 -8.741545845e-01 +4.148307995e-01 -8.743115408e-01 +4.156694114e-01 -5.090068337e-02 -7.411333475e-03
13000000000.000000 -3.734243463e-02 -8.252606321e-02 -7.953992583e-01 +5.424068292e-01 -7.948234792e-01 +5.445280398e-01 -8.732405228e-02 -5.056762866e-02
13500000000.000000 -8.748689147e-02 -1.213969737e-01 -6.947336353e-01 +6.546856368e-01 -6.934644572e-01 +6.553242291e-01 -1.299361828e-01 -7.646787922e-02
14000000000.000000 -1.431443162e-01 -1.423819938e-01 -5.813980734e-01 +7.454421049e-01 -5.803437723e-01 +7.465108356e-01 -1.837807901e-01 -9.276780941e-02
14500000000.000000 -2.078271651e-01 -1.373599770e-01 -4.582365903e-01 +8.144407676e-01 -4.571280911e-01 +8.148016628e-01 -2.341581781e-01 -9.157198561e-02
15000000000.000000 -2.668288432e-01 -1.101711096e-01 -3.288474079e-01 +8.601961882e-01 -3.271142170e-01 +8.602217050e-01 -2.878537197e-01 -7.848914346e-02
15500000000.000000 -3.126655758e-01 -7.266421117e-02 -1.989336169e-01 +8.857197048e-01 -1.966248387e-01 +8.855093628e-01 -3.289456421e-01 -5.454720632e-02
16000000000.000000 -3.548793948e-01 -2.063636447e-02 -7.231972910e-02 +8.926955344e-01 -7.043783722e-02 +8.927319492e-01 -3.625967998e-01 -2.228868241e-02
16500000000.000000 -3.829307627e-01 +3.737287634e-02 +4.877648207e-02 +8.849586393e-01 +5.166827026e-02 +8.836990083e-01 -3.876731333e-01 +2.004160845e-02
17000000000.000000 -3.946931239e-01 +9.999261292e-02 +1.675489282e-01 +8.598117917e-01 +1.688656921e-01 +8.569110078e-01 -4.082511594e-01 +6.709389068e-02
17500000000.000000 -3.849600608e-01 +1.696880447e-01 +2.781226201e-01 +8.172712876e-01 +2.810091220e-01 +8.149503211e-01 -4.149541003e-01 +1.103791627e-01
18000000000.000000 -3.654097593e-01 +2.304361585e-01 +3.810905689e-01 +7.768258452e-01 +3.828628158e-01 +7.741825457e-01 -4.023293896e-01 +1.578635263e-01
18500000000.000000 -3.327729567e-01 +2.791876358e-01 +4.770754465e-01 +7.164377368e-01 +4.773429708e-01 +7.153765369e-01 -3.884514790e-01 +2.107882423e-01
19000000000.000000 -2.878073199e-01 +3.146121538e-01 +5.656991601e-01 +6.456046095e-01 +5.677742007e-01 +6.436115331e-01 -3.674304763e-01 +2.488392834e-01
19500000000.000000 -2.379503301e-01 +3.531406771e-01 +6.487422012e-01 +5.714512737e-01 +6.505068467e-01 +5.673127466e-01 -3.270688374e-01 +2.817560334e-01
20000000000.000000 -1.724839049e-01 +3.762155627e-01 +7.232405116e-01 +4.835784525e-01 +7.228218603e-01 +4.807797882e-01 -2.847628574e-01 +3.058554778e-01
20500000000.000000 -1.142027640e-01 +3.717631860e-01 +7.895756075e-01 +3.863446753e-01 +7.890576204e-01 +3.827833587e-01 -2.431873698e-01 +3.211481080e-01
21000000000.000000 -6.412201798e-02 +3.640292431e-01 +8.397050327e-01 +2.760824293e-01 +8.402515957e-01 +2.733580333e-01 -1.818885297e-01 +3.322455489e-01
21500000000.000000 -1.178714051e-02 +3.385260849e-01 +8.841879333e-01 +1.583333545e-01 +8.825402826e-01 +1.557044037e-01 -1.267182660e-01 +3.137186709e-01
22000000000.000000 +3.436338937e-02 +2.990749376e-01 +9.097431684e-01 +3.349125968e-02 +9.101533850e-01 +3.101595004e-02 -7.948161143e-02 +2.959441444e-01
22500000000.000000 +6.357677275e-02 +2.461840525e-01 +9.131777380e-01 -9.877277213e-02 +9.133880011e-01 -1.021995348e-01 -2.842313970e-02 +2.503388265e-01
23000000000.000000 +6.343598685e-02 +1.995059722e-01 +8.995554572e-01 -2.407257816e-01 +8.988955138e-01 -2.429886070e-01 +7.005060858e-03 +2.039701637e-01
23500000000.000000 +5.745066756e-02 +1.446422206e-01 +8.610499150e-01 -3.786974974e-01 +8.604261135e-01 -3.815085043e-01 +2.533595775e-02 +1.468878270e-01
24000000000.000000 +4.273903203e-02 +9.348166740e-02 +7.970852580e-01 -5.077627221e-01 +7.956749120e-01 -5.111822377e-01 +3.259386239e-02 +8.146928028e-02
24500000000.000000 +5.114153065e-03 +4.351982187e-02 +7.116370160e-01 -6.294888864e-01 +7.078904698e-01 -6.320414719e-01 +1.645110906e-02 +2.236639229e-02
25000000000.000000 -4.878983365e-02 +1.856090333e-02 +6.020552987e-01 -7.350176880e-01 +5.996354757e-01 -7.356864277e-01 -2.062455934e-02 -2.875267396e-02
25500000000.000000 -1.031384953e-01 +8.408078994e-03 +4.774846808e-01 -8.154384616e-01 +4.744188947e-01 -8.165130615e-01 -6.704821903e-02 -6.434771749e-02
26000000000.000000 -1.588768203e-01 +1.509288775e-02 +3.441762087e-01 -8.697099195e-01 +3.410797861e-01 -8.704056340e-01 -1.250134772e-01 -8.321440560e-02
26500000000.000000 -2.054397818e-01 +3.051104958e-02 +2.059952157e-01 -9.004291850e-01 +2.015489360e-01 -9.015216298e-01 -1.923888475e-01 -8.352043232e-02
27000000000.000000 -2.517777276e-01 +5.869721866e-02 +6.568369273e-02 -9.113126075e-01 +6.182824782e-02 -9.109522249e-01 -2.532235171e-01 -6.397781764e-02
27500000000.000000 -2.957326815e-01 +1.042438560e-01 -6.551085832e-02 -8.970382490e-01 -7.126510087e-02 -8.961510687e-01 -2.965180996e-01 -2.294239038e-02
28000000000.000000 -3.184738964e-01 +1.518876885e-01 -1.912635906e-01 -8.637978425e-01 -1.944183883e-01 -8.628956926e-01 -3.377127396e-01 +2.782425984e-02
28500000000.000000 -3.197757813e-01 +1.962238400e-01 -3.032343155e-01 -8.194474645e-01 -3.061075177e-01 -8.178559026e-01 -3.680408579e-01 +8.502432014e-02
29000000000.000000 -3.051790866e-01 +2.421886809e-01 -4.078321639e-01 -7.594710473e-01 -4.097848661e-01 -7.579447476e-01 -3.762084472e-01 +1.433538365e-01
29500000000.000000 -2.992196067e-01 +2.871452233e-01 -4.997576509e-01 -6.921333625e-01 -5.025177443e-01 -6.888843097e-01 -3.645577125e-01 +2.092742463e-01
30000000000.000000 -2.739106110e-01 +3.430759955e-01 -5.796154541e-01 -6.145707419e-01 -5.813727880e-01 -6.122147284e-01 -3.383206503e-01 +2.690916645e-01
30500000000.000000 -2.437351113e-01 +3.680325291e-01 -6.681076308e-01 -5.242912791e-01 -6.528968566e-01 -5.397743545e-01 -3.038004273e-01 +3.166784616e-01
31000000000.000000 -2.052369425e-01 +3.935541692e-01 -7.278595354e-01 -4.332965340e-01 -7.154742028e-01 -4.491036935e-01 -2.556000848e-01 +3.587678303e-01
31500000000.000000 -1.626284211e-01 +4.080376744e-01 -7.792400922e-01 -3.386045099e-01 -7.697115929e-01 -3.529711398e-01 -1.986833585e-01 +3.864883694e-01
32000000000.000000 -1.155138242e-01 +4.118565595e-01 -8.212036570e-01 -2.351073777e-01 -8.135377486e-01 -2.525878686e-01 -1.385542555e-01 +4.008610771e-01
32500000000.000000 -7.108917969e-02 +4.047378492e-01 -8.520832519e-01 -1.256215136e-01 -8.466097801e-01 -1.433235480e-01 -7.463354061e-02 +4.009416549e-01
33000000000.000000 -2.608841310e-02 +3.885876960e-01 -8.697878151e-01 -1.104303318e-02 -8.670584204e-01 -2.824273250e-02 -1.286410331e-02 +3.846992485e-01
33500000000.000000 +1.421455079e-02 +3.599986764e-01 -8.729880307e-01 +1.133818621e-01 -8.739311974e-01 +8.863622326e-02 +4.127569179e-02 +3.540622823e-01
34000000000.000000 +4.479381829e-02 +3.237056779e-01 -8.592012371e-01 +2.366339107e-01 -8.631334304e-01 +2.136324923e-01 +8.719635343e-02 +3.091128393e-01
34500000000.000000 +6.695782099e-02 +2.776098326e-01 -8.279734813e-01 +3.607296569e-01 -8.334305617e-01 +3.404117739e-01 +1.175617341e-01 +2.540938754e-01
35000000000.000000 +7.558860176e-02 +2.266376600e-01 -7.738704084e-01 +4.864705843e-01 -7.855115793e-01 +4.633618183e-01 +1.305193725e-01 +1.925157468e-01
35500000000.000000 +7.118479631e-02 +1.729931055e-01 -6.988699476e-01 +6.053692259e-01 -7.145517254e-01 +5.821362772e-01 +1.238584847e-01 +1.291372453e-01
36000000000.000000 +5.053563431e-02 +1.227388902e-01 -6.039973612e-01 +7.097586680e-01 -6.211908643e-01 +6.920720785e-01 +9.778740762e-02 +7.117587413e-02
36500000000.000000 +1.850544361e-02 +8.226828842e-02 -4.892639082e-01 +7.988352128e-01 -5.079994106e-01 +7.840987553e-01 +5.702275740e-02 +2.359898794e-02
37000000000.000000 -2.683373649e-02 +5.140341970e-02 -3.580273676e-01 +8.668561972e-01 -3.802194567e-01 +8.550503323e-01 +1.072351251e-03 -7.989816083e-03
37500000000.000000 -7.757174397e-02 +3.775648440e-02 -2.163799262e-01 +9.099232455e-01 -2.426158696e-01 +9.007832171e-01 -6.044462179e-02 -2.205574827e-02
38000000000.000000 -1.314468095e-01 +4.100858480e-02 -7.299655040e-02 +9.263217041e-01 -9.821879942e-02 +9.213570197e-01 -1.247371016e-01 -1.525479062e-02
38500000000.000000 -1.825845154e-01 +5.949507752e-02 +6.873441134e-02 +9.173747764e-01 +4.696101038e-02 +9.159788097e-01 -1.824538292e-01 +1.107698174e-02
39000000000.000000 -2.229266065e-01 +9.256713264e-02 +1.979062828e-01 +8.872622693e-01 +1.884537890e-01 +8.873687982e-01 -2.300659663e-01 +5.164016204e-02
39500000000.000000 -2.537969036e-01 +1.369236217e-01 +3.288611813e-01 +8.326681801e-01 +3.058142347e-01 +8.387843200e-01 -2.642875143e-01 +1.034066429e-01
40000000000.000000 -2.671101165e-01 +1.874318184e-01 +4.428041596e-01 +7.636216416e-01 +4.144967290e-01 +7.771120570e-01 -2.835885573e-01 +1.614121459e-01
40500000000.000000 -2.701230341e-01 +2.391793926e-01 +5.353414328e-01 +6.861003493e-01 +5.156594990e-01 +6.978189905e-01 -2.848869839e-01 +2.207549959e-01
41000000000.000000 -2.576220176e-01 +2.912457619e-01 +6.143597218e-01 +5.987769502e-01 +5.992044912e-01 +6.114035107e-01 -2.732972149e-01 +2.785521707e-01
41500000000.000000 -2.335960700e-01 +3.399948726e-01 +6.822469915e-01 +5.035402907e-01 +6.670474326e-01 +5.179434914e-01 -2.482784751e-01 +3.296479233e-01
42000000000.000000 -1.953521897e-01 +3.796286709e-01 +7.355399480e-01 +4.057403592e-01 +7.240353321e-01 +4.221147066e-01 -2.147776898e-01 +3.735475851e-01
42500000000.000000 -1.513574561e-01 +4.106856956e-01 +7.769749994e-01 +3.037834933e-01 +7.668984163e-01 +3.216268347e-01 -1.705037128e-01 +4.083483520e-01
43000000000.000000 -9.787864501e-02 +4.336971629e-01 +8.069572163e-01 +1.977883281e-01 +7.996611137e-01 +2.186120722e-01 -1.220867611e-01 +4.318993669e-01
43500000000.000000 -4.249349466e-02 +4.407241910e-01 +8.256559479e-01 +9.208211960e-02 +8.203740362e-01 +1.124824758e-01 -7.082518373e-02 +4.442105830e-01
44000000000.000000 +1.472131466e-02 +4.362562816e-01 +8.324509083e-01 -1.842884815e-02 +8.300501641e-01 +5.796391768e-03 -1.754400794e-02 +4.439003127e-01
44500000000.000000 +7.151748220e-02 +4.214595960e-01 +8.263305821e-01 -1.255850514e-01 +8.262771354e-01 -1.048547019e-01 +3.252150049e-02 +4.341474769e-01
45000000000.000000 +1.223880831e-01 +3.917171824e-01 +8.086555550e-01 -2.379457938e-01 +8.117986923e-01 -2.125212433e-01 +7.831131143e-02 +4.119150986e-01
45500000000.000000 +1.653244314e-01 +3.527799925e-01 +7.774071050e-01 -3.485526600e-01 +7.829662600e-01 -3.236892492e-01 +1.200174121e-01 +3.780623993e-01
46000000000.000000 +1.983549193e-01 +3.001564527e-01 +7.287035273e-01 -4.609682468e-01 +7.426149910e-01 -4.312846899e-01 +1.502202963e-01 +3.364050803e-01
46500000000.000000 +2.159368583e-01 +2.452342496e-01 +6.654226019e-01 -5.655327433e-01 +6.820568385e-01 -5.399851165e-01 +1.698687665e-01 +2.880388305e-01
47000000000.000000 +2.205678586e-01 +1.876814716e-01 +5.832647587e-01 -6.650903812e-01 +6.048255698e-01 -6.412347080e-01 +1.779303276e-01 +2.349062444e-01
47500000000.000000 +2.066989100e-01 +1.306264197e-01 +4.831278099e-01 -7.539336801e-01 +5.096178583e-01 -7.319302459e-01 +1.688135948e-01 +1.816452870e-01
48000000000.000000 +1.747274840e-01 +7.988285932e-02 +3.689650578e-01 -8.269277563e-01 +3.981257225e-01 -8.102496557e-01 +1.473371658e-01 +1.304018076e-01
48500000000.000000 +1.304077705e-01 +4.475229987e-02 +2.409640220e-01 -8.812986967e-01 +2.701183104e-01 -8.707282188e-01 +1.099454838e-01 +8.730996049e-02
49000000000.000000 +7.584764019e-02 +2.293497517e-02 +9.803883217e-02 -9.150854516e-01 +1.319936672e-01 -9.073656814e-01 +6.258612411e-02 +5.674799514e-02
49500000000.000000 +1.875995728e-02 +2.433590497e-02 -4.961284755e-02 -9.203152447e-01 -1.068620008e-02 -9.173051335e-01 +6.974482888e-03 +3.697503317e-02
50000000000.000000 -3.623435797e-02 +4.352078316e-02 -1.926153687e-01 -8.994621283e-01 -1.586290752e-01 -9.021069726e-01 -5.097500188e-02 +3.941112216e-02
50500000000.000000 -8.332171199e-02 +7.878971286e-02 -3.283057518e-01 -8.530915364e-01 -2.999160715e-01 -8.610276948e-01 -1.043343034e-01 +5.660046434e-02
51000000000.000000 -1.130860509e-01 +1.288897323e-01 -4.528248255e-01 -7.842535221e-01 -4.263752588e-01 -7.956450780e-01 -1.518812468e-01 +8.936124870e-02
51500000000.000000 -1.320973200e-01 +1.833329505e-01 -5.602202358e-01 -6.968585851e-01 -5.370524724e-01 -7.112524513e-01 -1.857737317e-01 +1.354255464e-01
52000000000.000000 -1.272816601e-01 +2.472504048e-01 -6.503771783e-01 -5.948253671e-01 -6.287275944e-01 -6.136417688e-01 -2.084007750e-01 +1.863958615e-01
52500000000.000000 -1.094823674e-01 +3.003026140e-01 -7.208769341e-01 -4.822060280e-01 -6.964886164e-01 -5.121585262e-01 -2.134891429e-01 +2.436149595e-01
53000000000.000000 -7.941831326e-02 +3.510152223e-01 -7.689869063e-01 -3.723067835e-01 -7.523425903e-01 -4.001980314e-01 -2.025824734e-01 +2.970299226e-01
53500000000.000000 -3.557149331e-02 +3.878036612e-01 -8.009584450e-01 -2.608044772e-01 -7.893823037e-01 -2.845202121e-01 -1.803767547e-01 +3.472877872e-01
54000000000.000000 +8.876834224e-03 +4.131111202e-01 -8.189566967e-01 -1.480018661e-01 -8.108142004e-01 -1.751910637e-01 -1.422526373e-01 +3.878954760e-01
54500000000.000000 +6.506191771e-02 +4.283514574e-01 -8.243474454e-01 -3.415241377e-02 -8.192017782e-01 -6.697108866e-02 -9.764840930e-02 +4.191162189e-01
55000000000.000000 +1.162552979e-01 +4.278657116e-01 -8.151912374e-01 +7.464558500e-02 -8.151337360e-01 +3.960607664e-02 -4.309273383e-02 +4.411028334e-01
55500000000.000000 +1.683809578e-01 +4.192769473e-01 -7.937602696e-01 +1.807839489e-01 -7.990526686e-01 +1.444092835e-01 +1.260057099e-02 +4.497959005e-01
56000000000.000000 +2.089809121e-01 +3.974372564e-01 -7.672890343e-01 +2.769354254e-01 -7.774814283e-01 +2.430382586e-01 +6.868131986e-02 +4.408611475e-01
56500000000.000000 +2.463369406e-01 +3.662287920e-01 -7.285727317e-01 +3.728080616e-01 -7.392364533e-01 +3.476024859e-01 +1.249243850e-01 +4.204444667e-01
57000000000.000000 +2.776519449e-01 +3.284313417e-01 -6.762935156e-01 +4.706761308e-01 -6.902607028e-01 +4.439931966e-01 +1.753046272e-01 +3.865306966e-01
57500000000.000000 +2.964206310e-01 +2.804975701e-01 -6.167946836e-01 +5.579664288e-01 -6.324052170e-01 +5.356033851e-01 +2.135729845e-01 +3.441759759e-01
58000000000.000000 +3.025460570e-01 +2.361761495e-01 -5.411531948e-01 +6.438336835e-01 -5.608772516e-01 +6.259565813e-01 +2.447631699e-01 +2.866072600e-01
58500000000.000000 +3.004271140e-01 +1.900847900e-01 -4.534830157e-01 +7.235723515e-01 -4.757141515e-01 +7.064297042e-01 +2.567304075e-01 +2.256760140e-01
59000000000.000000 +2.807938594e-01 +1.389276842e-01 -3.404133107e-01 +7.965406930e-01 -3.792867129e-01 +7.745953765e-01 +2.565738217e-01 +1.655825171e-01
59500000000.000000 +2.448131494e-01 +1.068079076e-01 -2.238730272e-01 +8.496764718e-01 -2.620479527e-01 +8.347050147e-01 +2.351019286e-01 +1.023366746e-01
60000000000.000000 +2.055121323e-01 +6.994175538e-02 -1.047480613e-01 +8.820340635e-01 -1.344145007e-01 +8.747955446e-01 +1.993642986e-01 +5.180593482e-02
60500000000.000000 +1.518775684e-01 +5.278177334e-02 +3.389114072e-02 +8.973255262e-01 +6.601014915e-04 +8.945053278e-01 +1.450087271e-01 +1.351126649e-02
61000000000.000000 +1.057918735e-01 +5.000969144e-02 +1.729106652e-01 +8.858382947e-01 +1.388664681e-01 +8.887799935e-01 +8.742605920e-02 -6.987044906e-03
61500000000.000000 +5.584438065e-02 +5.654431555e-02 +3.163050900e-01 +8.477527114e-01 +2.754951564e-01 +8.601215017e-01 +2.428241050e-02 -5.601641798e-03
62000000000.000000 +1.047120149e-02 +9.444011478e-02 +4.467291820e-01 +7.864139508e-01 +4.113870169e-01 +8.028796546e-01 -3.716214467e-02 +1.176877825e-02
62500000000.000000 -1.661318525e-02 +1.260538690e-01 +5.643983124e-01 +7.010910570e-01 +5.237226532e-01 +7.278148722e-01 -8.758692617e-02 +5.077545723e-02
63000000000.000000 -4.309295369e-02 +1.740576894e-01 +6.593876001e-01 +6.012543663e-01 +6.255108530e-01 +6.338119525e-01 -1.176234161e-01 +1.043678102e-01
63500000000.000000 -4.747999394e-02 +2.215910199e-01 +7.354521582e-01 +4.894526468e-01 +7.067034137e-01 +5.266764377e-01 -1.360264525e-01 +1.618855301e-01
64000000000.000000 -4.402385282e-02 +2.648361988e-01 +7.905889971e-01 +3.668225541e-01 +7.667663045e-01 +4.097892543e-01 -1.295228521e-01 +2.227533083e-01
64500000000.000000 -2.671875776e-02 +3.092355208e-01 +8.245183612e-01 +2.441131610e-01 +8.083087007e-01 +2.901756849e-01 -1.024953340e-01 +2.804954826e-01
65000000000.000000 +3.561850295e-03 +3.435236399e-01 +8.359806024e-01 +1.361313806e-01 +8.292640905e-01 +1.676408786e-01 -7.470919621e-02 +3.290861172e-01
65500000000.000000 +4.001873726e-02 +3.760042225e-01 +8.374490088e-01 +1.916060520e-02 +8.317708925e-01 +5.183921486e-02 -2.529265904e-02 +3.657861746e-01
66000000000.000000 +8.306342562e-02 +3.904621966e-01 +8.216355069e-01 -1.090423225e-01 +8.235362582e-01 -6.229997465e-02 +3.188730860e-02 +3.879231112e-01
66500000000.000000 +1.318142180e-01 +3.919313838e-01 +7.940047437e-01 -2.108663213e-01 +8.007752106e-01 -1.721318879e-01 +8.453897945e-02 +3.985242922e-01
67000000000.000000 +1.726598621e-01 +3.805479963e-01 +7.508674659e-01 -3.220675330e-01 +7.661866960e-01 -2.749590896e-01 +1.413001601e-01 +3.916247520e-01
67500000000.000000 +2.177784598e-01 +3.660260752e-01 +7.048423850e-01 -4.058851183e-01 +7.208611425e-01 -3.712991806e-01 +1.951935577e-01 +3.772750113e-01
68000000000.000000 +2.560162256e-01 +3.463475699e-01 +6.482528149e-01 -4.879661544e-01 +6.647715719e-01 -4.580803743e-01 +2.402056408e-01 +3.511786126e-01
68500000000.000000 +2.920684359e-01 +3.026607141e-01 +5.798298092e-01 -5.735859683e-01 +6.011862597e-01 -5.439105078e-01 +2.783761591e-01 +3.154567754e-01
69000000000.000000 +3.220252047e-01 +2.580152934e-01 +4.963276270e-01 -6.510531427e-01 +5.253213200e-01 -6.222996390e-01 +3.100162203e-01 +2.710573240e-01
69500000000.000000 +3.330510384e-01 +2.041299625e-01 +4.003782428e-01 -7.208102986e-01 +4.392164007e-01 -6.921437986e-01 +3.262010331e-01 +2.237854752e-01
70000000000.000000 +3.376889373e-01 +1.547148550e-01 +3.107132775e-01 -7.720111432e-01 +3.445937606e-01 -7.523629223e-01 +3.316054374e-01 +1.755011569e-01
70500000000.000000 +3.304146502e-01 +9.823851714e-02 +2.020564374e-01 -8.168267930e-01 +2.386355729e-01 -7.998447904e-01 +3.251091866e-01 +1.277252347e-01
71000000000.000000 +3.103827729e-01 +3.947035111e-02 +7.932726163e-02 -8.459215734e-01 +1.210646699e-01 -8.385785089e-01 +3.086261796e-01 +8.678165453e-02
71500000000.000000 +2.760352898e-01 -7.149466070e-04 -3.990093921e-02 -8.594270312e-01 +3.990572253e-03 -8.540726901e-01 +2.788030235e-01 +4.757417461e-02
72000000000.000000 +2.295650203e-01 -3.223324851e-02 -1.637780903e-01 -8.538156401e-01 -1.242781236e-01 -8.544188049e-01 +2.429280006e-01 +1.979583704e-02
72500000000.000000 +1.771344059e-01 -4.984416656e-02 -2.914047975e-01 -8.280513286e-01 -2.524394389e-01 -8.381537382e-01 +1.994996468e-01 +1.201094431e-03
73000000000.000000 +1.238744681e-01 -5.295267911e-02 -4.158281494e-01 -7.806473245e-01 -3.837621486e-01 -7.956394157e-01 +1.543396703e-01 -1.112224340e-03
73500000000.000000 +7.153048371e-02 -4.046108064e-02 -5.398471650e-01 -7.051762761e-01 -5.039811245e-01 -7.287809011e-01 +1.087654635e-01 +6.687376131e-03
74000000000.000000 +2.501468809e-02 -1.415698302e-02 -6.490972894e-01 -6.105925654e-01 -6.153203907e-01 -6.405703074e-01 +6.869039452e-02 +3.046881969e-02
74500000000.000000 +1.075933726e-05 +2.919477220e-02 -7.298844558e-01 -5.049585972e-01 -7.044323036e-01 -5.365121676e-01 +3.288496434e-02 +5.903256976e-02
75000000000.000000 -2.101821243e-02 +7.967262226e-02 -7.983680423e-01 -3.859363939e-01 -7.751918222e-01 -4.186961258e-01 +1.453988051e-02 +9.945093577e-02
75500000000.000000 -7.615272245e-03 +1.327285731e-01 -8.464940338e-01 -2.461818307e-01 -8.286476849e-01 -2.977595486e-01 +7.400756581e-04 +1.471230236e-01
76000000000.000000 +9.142818163e-03 +1.815697711e-01 -8.667002644e-01 -1.192758939e-01 -8.572926768e-01 -1.621120327e-01 +7.384188194e-03 +1.922077578e-01
76500000000.000000 +4.339776268e-02 +2.210258200e-01 -8.650986725e-01 +1.573247638e-02 -8.617486700e-01 -3.213521252e-02 +2.349312021e-02 +2.363079487e-01
77000000000.000000 +8.966027916e-02 +2.482969691e-01 -8.423685228e-01 +1.368957707e-01 -8.489091048e-01 +9.222412133e-02 +4.631650894e-02 +2.720344645e-01
77500000000.000000 +1.424986064e-01 +2.623649697e-01 -8.025069575e-01 +2.577630685e-01 -8.101025256e-01 +2.175276366e-01 +8.230815999e-02 +3.009526935e-01
78000000000.000000 +2.037696151e-01 +2.555470979e-01 -7.439856806e-01 +3.775797144e-01 -7.645710495e-01 +3.255981011e-01 +1.214658009e-01 +3.213561889e-01
78500000000.000000 +2.552473754e-01 +2.486876486e-01 -6.798451472e-01 +4.653936631e-01 -7.012534484e-01 +4.226648551e-01 +1.632728275e-01 +3.333337965e-01
79000000000.000000 +3.029675782e-01 +2.237614212e-01 -6.063625062e-01 +5.465026674e-01 -6.349522311e-01 +5.095545854e-01 +2.069914438e-01 +3.298389083e-01
79500000000.000000 +3.457684056e-01 +1.852199146e-01 -5.294153307e-01 +6.146972158e-01 -5.555057173e-01 +5.879661871e-01 +2.496235954e-01 +3.202626623e-01
80000000000.000000 +3.845697942e-01 +1.350901823e-01 -4.256994225e-01 +6.840427155e-01 -4.698407765e-01 +6.498686051e-01 +2.864891968e-01 +3.022426902e-01
80500000000.000000 +3.879709236e-01 +8.015625607e-02 -3.319601036e-01 +7.327217603e-01 -3.777846146e-01 +7.062319388e-01 +3.189760946e-01 +2.697230594e-01
81000000000.000000 +4.061118114e-01 +3.521380738e-02 -2.397415369e-01 +7.674608699e-01 -2.777886063e-01 +7.479856601e-01 +3.457515997e-01 +2.307589242e-01
81500000000.000000 +4.023586368e-01 -2.702191459e-02 -1.270096260e-01 +7.930386082e-01 -1.745408829e-01 +7.819946987e-01 +3.658530581e-01 +1.856414483e-01
82000000000.000000 +3.862221929e-01 -6.862015038e-02 -1.150018700e-02 +8.096932196e-01 -6.657213706e-02 +8.038626543e-01 +3.702207672e-01 +1.391410903e-01
82500000000.000000 +3.629585191e-01 -1.155500069e-01 +9.682716528e-02 +8.066053762e-01 +4.148046523e-02 +8.116402310e-01 +3.637539268e-01 +8.912087836e-02
83000000000.000000 +3.175417951e-01 -1.426237721e-01 +1.982065347e-01 +7.999358336e-01 +1.523759239e-01 +8.075148364e-01 +3.457679734e-01 +5.123175541e-02
83500000000.000000 +2.692388899e-01 -1.660560712e-01 +3.248186087e-01 +7.686692846e-01 +2.679427751e-01 +7.890129785e-01 +3.145815669e-01 +6.715276647e-03
84000000000.000000 +2.231417228e-01 -1.671492237e-01 +4.201167592e-01 +7.333092789e-01 +3.849116809e-01 +7.516118768e-01 +2.750336971e-01 -2.301461319e-02
84500000000.000000 +1.702646239e-01 -1.648661716e-01 +5.437827999e-01 +6.579345737e-01 +4.976602542e-01 +6.910692858e-01 +2.272850290e-01 -4.578552201e-02
85000000000.000000 +1.281782777e-01 -1.403668474e-01 +6.390959932e-01 +5.774066566e-01 +6.028015889e-01 +6.157348897e-01 +1.724254140e-01 -5.315625965e-02
85500000000.000000 +9.117140023e-02 -1.031356727e-01 +7.264946045e-01 +4.786972023e-01 +6.980284031e-01 +5.168166776e-01 +1.223572640e-01 -4.082907147e-02
86000000000.000000 +6.899011391e-02 -5.735024058e-02 +7.965542463e-01 +3.605327926e-01 +7.739372529e-01 +4.005641967e-01 +7.150487190e-02 -1.573418044e-02
86500000000.000000 +6.312924870e-02 -6.355113747e-05 +8.471071106e-01 +2.202492157e-01 +8.312771145e-01 +2.755519696e-01 +3.473363757e-02 +2.476991135e-02
87000000000.000000 +6.704752055e-02 +4.445698910e-02 +8.687265373e-01 +8.974454748e-02 +8.618863790e-01 +1.390050739e-01 +1.457945982e-02 +7.107974751e-02
87500000000.000000 +9.888062921e-02 +9.624238387e-02 +8.687603421e-01 -5.755422287e-02 +8.672830690e-01 +9.500096398e-03 +5.585851664e-03 +1.237282115e-01
88000000000.000000 +1.357742838e-01 +1.247925377e-01 +8.447546555e-01 -1.820242302e-01 +8.508669465e-01 -1.303902657e-01 +1.823736062e-02 +1.752480680e-01
88500000000.000000 +1.764027633e-01 +1.567565155e-01 +8.015333102e-01 -2.974995538e-01 +8.143209575e-01 -2.487626185e-01 +4.772523981e-02 +2.211810310e-01
89000000000.000000 +2.303688778e-01 +1.688471047e-01 +7.368111116e-01 -4.130143343e-01 +7.542890755e-01 -3.657701550e-01 +8.685137890e-02 +2.567260586e-01
89500000000.000000 +2.706970365e-01 +1.688120560e-01 +6.656336774e-01 -5.026606667e-01 +6.872444686e-01 -4.639038312e-01 +1.387063306e-01 +2.745890216e-01
90000000000.000000 +3.126408915e-01 +1.569568956e-01 +5.800203756e-01 -5.843694168e-01 +6.060479517e-01 -5.493169382e-01 +1.909665610e-01 +2.796197822e-01
90500000000.000000 +3.499414514e-01 +1.318889674e-01 +4.914039131e-01 -6.533881516e-01 +5.146161630e-01 -6.229015575e-01 +2.424940404e-01 +2.684176946e-01
91000000000.000000 +3.796580783e-01 +1.031309805e-01 +3.893138718e-01 -7.060572529e-01 +4.248192673e-01 -6.799809487e-01 +2.955037258e-01 +2.439499476e-01
91500000000.000000 +4.061233154e-01 +6.484192160e-02 +2.896261209e-01 -7.446516719e-01 +3.314182654e-01 -7.261328145e-01 +3.340699438e-01 +2.121437449e-01
92000000000.000000 +4.079007352e-01 +3.603214446e-02 +1.789324840e-01 -7.746364948e-01 +2.360349682e-01 -7.599625779e-01 +3.730374529e-01 +1.586604468e-01
92500000000.000000 +4.111331161e-01 -4.945559257e-03 +8.577894519e-02 -7.882114339e-01 +1.312513680e-01 -7.795568443e-01 +3.880410817e-01 +1.114766885e-01
93000000000.000000 +4.036271481e-01 -5.501374048e-02 -2.698396373e-02 -7.941965118e-01 +2.606469930e-02 -7.931251568e-01 +3.938644433e-01 +6.349569095e-02
93500000000.000000 +3.844682651e-01 -8.634862939e-02 -1.258879001e-01 -7.910012958e-01 -7.828886640e-02 -7.972127907e-01 +3.923074973e-01 +6.285618317e-03
94000000000.000000 +3.654233363e-01 -1.328314045e-01 -2.490106886e-01 -7.640635316e-01 -1.811480716e-01 -7.787898394e-01 +3.743289896e-01 -4.080005562e-02
94500000000.000000 +3.319642262e-01 -1.480452347e-01 -3.419681027e-01 -7.359672777e-01 -2.954621531e-01 -7.512212482e-01 +3.454652915e-01 -8.728629956e-02
95000000000.000000 +2.885477759e-01 -1.631809446e-01 -4.437297808e-01 -6.896521147e-01 -4.025446580e-01 -7.136358530e-01 +3.080959028e-01 -1.238069424e-01
95500000000.000000 +2.472202072e-01 -1.781990234e-01 -5.466421565e-01 -6.240184110e-01 -5.016691299e-01 -6.530916510e-01 +2.627464739e-01 -1.420394330e-01
96000000000.000000 +1.874645446e-01 -1.700938555e-01 -6.469532929e-01 -5.354107267e-01 -6.006259908e-01 -5.767913687e-01 +2.084481734e-01 -1.482973566e-01
96500000000.000000 +1.518619695e-01 -1.553296475e-01 -7.271402177e-01 -4.334370645e-01 -6.869578142e-01 -4.932340140e-01 +1.601237398e-01 -1.437339201e-01
97000000000.000000 +1.076260744e-01 -1.371548941e-01 -7.851410728e-01 -3.276669076e-01 -7.601159470e-01 -3.841434918e-01 +1.184302483e-01 -1.213828163e-01
97500000000.000000 +7.848540189e-02 -8.827578935e-02 -8.306703805e-01 -2.187251745e-01 -8.114738495e-01 -2.692488558e-01 +8.232030129e-02 -8.933295005e-02
98000000000.000000 +6.908515304e-02 -5.081898711e-02 -8.569358069e-01 -7.112347355e-02 -8.505019516e-01 -1.306929355e-01 +5.970181047e-02 -4.835832919e-02
98500000000.000000 +6.101208141e-02 +3.499551385e-03 -8.593995786e-01 +6.416078911e-02 -8.608174814e-01 -7.324842025e-03 +5.537769508e-02 +1.945206741e-03
99000000000.000000 +7.696464509e-02 +4.723054459e-02 -8.368688531e-01 +1.944190165e-01 -8.466644635e-01 +1.326342590e-01 +6.305542536e-02 +4.991142298e-02
99500000000.000000 +8.655990873e-02 +8.974205422e-02 -7.913918251e-01 +3.189767073e-01 -8.093165019e-01 +2.613337214e-01 +9.053885011e-02 +9.203991109e-02
100000000000.000000 +1.263304460e-01 +1.181707401e-01 -7.296628334e-01 +4.293998141e-01 -7.531868150e-01 +3.841937743e-01 +1.251122096e-01 +1.223378755e-01
100500000000.000000 +1.676876860e-01 +1.312025470e-01 -6.462977300e-01 +5.342817846e-01 -6.802629916e-01 +4.866524006e-01 +1.654539091e-01 +1.439934412e-01
101000000000.000000 +2.161531479e-01 +1.369960067e-01 -5.526802581e-01 +6.193899958e-01 -5.949136271e-01 +5.737044250e-01 +2.161283512e-01 +1.508534620e-01
101500000000.000000 +2.549348823e-01 +1.325571764e-01 -4.626990048e-01 +6.804003935e-01 -4.983971454e-01 +6.489939245e-01 +2.608040843e-01 +1.471475645e-01
102000000000.000000 +3.018848898e-01 +1.125329838e-01 -3.458174215e-01 +7.336549656e-01 -3.934637352e-01 +7.040326273e-01 +3.107818055e-01 +1.279660687e-01
102500000000.000000 +3.288877776e-01 +7.470734652e-02 -2.354760866e-01 +7.686893669e-01 -2.879463078e-01 +7.464068625e-01 +3.434953184e-01 +9.815151790e-02
103000000000.000000 +3.575133903e-01 +3.970334524e-02 -1.161517965e-01 +7.851453833e-01 -1.787816302e-01 +7.692047201e-01 +3.700637887e-01 +6.487997391e-02
103500000000.000000 +3.702320470e-01 -1.516469535e-02 -1.593987010e-02 +7.877339153e-01 -7.704423963e-02 +7.814180663e-01 +3.944306611e-01 +3.126245104e-02
104000000000.000000 +3.705285978e-01 -6.007722774e-02 +8.914261381e-02 +7.799520339e-01 +3.334059112e-02 +7.839853784e-01 +3.957646657e-01 -6.796234658e-03
104500000000.000000 +3.777755342e-01 -1.310530491e-01 +1.945737658e-01 +7.535051011e-01 +1.338148862e-01 +7.667577718e-01 +4.037003603e-01 -4.962317194e-02
105000000000.000000 +3.375273693e-01 -1.504682368e-01 +2.957364304e-01 +7.281706472e-01 +2.426774584e-01 +7.418352279e-01 +3.876728030e-01 -9.337962275e-02
105500000000.000000 +3.081719997e-01 -2.007637525e-01 +3.805473212e-01 +6.849523535e-01 +3.386035287e-01 +7.030716528e-01 +3.690350714e-01 -1.225085545e-01
106000000000.000000 +2.594344046e-01 -2.387012437e-01 +4.872335483e-01 +6.265255190e-01 +4.473753099e-01 +6.556284458e-01 +3.527246569e-01 -1.549737777e-01
106500000000.000000 +2.268851621e-01 -2.556235773e-01 +5.581215675e-01 +5.715113810e-01 +5.311718897e-01 +5.927169522e-01 +3.169602443e-01 -1.760442124e-01
107000000000.000000 +1.684248967e-01 -2.782435280e-01 +6.428364757e-01 +4.824639838e-01 +6.228509973e-01 +5.101419902e-01 +2.845932244e-01 -1.889531743e-01
107500000000.000000 +1.169083262e-01 -2.523657843e-01 +7.088777770e-01 +3.986609259e-01 +6.980268299e-01 +4.151817206e-01 +2.376315249e-01 -1.971844564e-01
108000000000.000000 +8.791850586e-02 -2.377763559e-01 +7.783197233e-01 +2.728469368e-01 +7.500756465e-01 +3.262586135e-01 +1.975029131e-01 -1.890249164e-01
108500000000.000000 +3.914592552e-02 -2.115078339e-01 +8.107501496e-01 +1.731630588e-01 +7.952011915e-01 +2.125436297e-01 +1.633228885e-01 -1.727338458e-01
109000000000.000000 +1.153845853e-02 -1.479125162e-01 +8.290537085e-01 +2.984879227e-02 +8.241959756e-01 +8.902278416e-02 +1.289173837e-01 -1.465286162e-01
109500000000.000000 -5.911629065e-03 -1.221175601e-01 +8.320185112e-01 -1.097000455e-01 +8.416293582e-01 -3.900548655e-02 +1.125504916e-01 -1.056417220e-01
110000000000.000000 -9.487778347e-03 -6.994009104e-02 +8.133805642e-01 -2.347974335e-01 +8.226599965e-01 -1.517791014e-01 +9.711755790e-02 -6.993065674e-02
110500000000.000000 +2.915462228e-02 -1.324204002e-02 +7.586012195e-01 -3.620663176e-01 +7.953383012e-01 -2.863375196e-01 +9.219552996e-02 -1.731698717e-02
111000000000.000000 +6.239086764e-02 +4.581288211e-03 +6.996853775e-01 -4.727370910e-01 +7.242753445e-01 -4.036839974e-01 +1.086551646e-01 +2.246471612e-02
111500000000.000000 +1.050243817e-01 +3.516628695e-02 +6.065259231e-01 -5.803642167e-01 +6.587101682e-01 -5.268919577e-01 +1.358974143e-01 +5.901493490e-02
112000000000.000000 +1.800103813e-01 +4.397774666e-02 +5.180143168e-01 -6.487364539e-01 +5.575990224e-01 -6.018695266e-01 +1.753647346e-01 +1.008464562e-01
112500000000.000000 +1.989048877e-01 +2.039497898e-02 +4.041129531e-01 -7.173922830e-01 +4.569029015e-01 -6.853944940e-01 +2.140489928e-01 +1.007928644e-01
113000000000.000000 +2.565616982e-01 +2.344073790e-02 +2.748796579e-01 -7.568788183e-01 +3.411458344e-01 -7.215801111e-01 +2.588854527e-01 +1.165257850e-01
113500000000.000000 +3.039678103e-01 -5.438809979e-02 +1.778202468e-01 -7.715548523e-01 +2.273159705e-01 -7.619368406e-01 +3.103174671e-01 +1.050834351e-01
114000000000.000000 +3.207667463e-01 -7.810779377e-02 +5.237007171e-02 -7.831611839e-01 +1.237639303e-01 -7.864105688e-01 +3.452398561e-01 +8.456563592e-02
114500000000.000000 +3.685726287e-01 -1.484531228e-01 -5.545257673e-02 -7.630209626e-01 +1.576199013e-02 -7.720772047e-01 +3.850728774e-01 +6.339003598e-02
115000000000.000000 +3.078319600e-01 -1.994701447e-01 -1.978529693e-01 -7.446604995e-01 -1.244509536e-01 -7.671513667e-01 +4.081315610e-01 -6.103343175e-03
115500000000.000000 +3.491196414e-01 -2.267631236e-01 -2.502720198e-01 -7.238223214e-01 -1.795896076e-01 -7.409220520e-01 +4.241578307e-01 -3.532896163e-02
116000000000.000000 +3.141294863e-01 -2.921856655e-01 -3.540477168e-01 -6.789972419e-01 -2.872153711e-01 -7.012901843e-01 +4.301577482e-01 -8.781307790e-02
116500000000.000000 +2.914981816e-01 -2.950858818e-01 -4.420624822e-01 -6.091397283e-01 -3.756242695e-01 -6.556986118e-01 +3.976573235e-01 -1.513447347e-01
117000000000.000000 +2.689996384e-01 -3.381569778e-01 -5.020492440e-01 -5.608458959e-01 -4.566502260e-01 -6.051106006e-01 +3.862170788e-01 -1.898857382e-01
117500000000.000000 +2.158871791e-01 -3.546477780e-01 -5.810876052e-01 -4.863970456e-01 -5.402300342e-01 -5.340691331e-01 +3.480616115e-01 -2.394174315e-01
118000000000.000000 +1.968906502e-01 -3.523254438e-01 -6.400164315e-01 -4.081561701e-01 -6.148195703e-01 -4.628594293e-01 +2.965287837e-01 -2.686054108e-01
118500000000.000000 +1.648656485e-01 -3.507429528e-01 -6.971527312e-01 -3.236733833e-01 -6.669047209e-01 -3.838611665e-01 +2.357364570e-01 -2.926369228e-01
119000000000.000000 +1.110044282e-01 -3.431967426e-01 -7.514725502e-01 -2.176379796e-01 -7.232383835e-01 -2.867267237e-01 +1.736447572e-01 -2.962452465e-01
119500000000.000000 +1.012825777e-01 -3.122937280e-01 -7.843734749e-01 -1.245414658e-01 -7.656824300e-01 -1.875109481e-01 +1.143533862e-01 -2.831967586e-01
120000000000.000000 +6.144447327e-02 -3.071949035e-01 -8.043781115e-01 -1.574223184e-03 -7.916730563e-01 -6.825133418e-02 +6.477805050e-02 -2.609534486e-01
120500000000.000000 +4.055276240e-02 -2.789706675e-01 -8.113707334e-01 +1.306976947e-01 -8.011574404e-01 +5.917896108e-02 +6.850004991e-03 -2.145950176e-01
121000000000.000000 +5.979248639e-02 -2.316345722e-01 -7.821208476e-01 +2.323895628e-01 -7.945201390e-01 +1.766015706e-01 -2.732265084e-02 -1.608618453e-01
121500000000.000000 +5.551922514e-02 -1.917140337e-01 -7.366433944e-01 +3.663807137e-01 -7.650517703e-01 +3.061025533e-01 -4.638984133e-02 -1.049957062e-01
122000000000.000000 +7.466193443e-02 -1.566879417e-01 -6.743707919e-01 +4.751970194e-01 -7.118788773e-01 +4.054893120e-01 -4.339441215e-02 -3.269102302e-02
122500000000.000000 +9.403602875e-02 -1.320631386e-01 -5.876417597e-01 +5.875097718e-01 -6.323595489e-01 +5.213963461e-01 -2.211338671e-02 +1.394264407e-02
123000000000.000000 +1.225774734e-01 -1.101978276e-01 -5.107804392e-01 +6.578313658e-01 -5.443374744e-01 +6.139159517e-01 +2.001951859e-02 +6.758099768e-02
123500000000.000000 +1.896529189e-01 -1.238629008e-01 -3.753078974e-01 +7.342960634e-01 -4.371469622e-01 +6.978339115e-01 +6.471655228e-02 +1.005779142e-01
124000000000.000000 +1.784899626e-01 -1.205919235e-01 -2.711380373e-01 +7.615514727e-01 -3.273360059e-01 +7.344532298e-01 +1.266283591e-01 +1.036492211e-01
124500000000.000000 +2.188368204e-01 -1.207899568e-01 -1.663492531e-01 +7.910980550e-01 -2.084084540e-01 +7.819156097e-01 +1.764302489e-01 +9.375609509e-02
125000000000.000000 +2.560707183e-01 -1.402051354e-01 -2.701293631e-02 +7.925468547e-01 -1.010364578e-01 +7.954348298e-01 +2.330638156e-01 +6.673768034e-02
125500000000.000000 +2.675558022e-01 -1.394516137e-01 +6.648704280e-02 +7.837450210e-01 +3.388278796e-02 +7.887457644e-01 +2.661223933e-01 +2.705798833e-02
126000000000.000000 +3.004836166e-01 -1.942154635e-01 +2.044671980e-01 +7.517370092e-01 +1.537184152e-01 +7.608166107e-01 +3.040278844e-01 -2.317095161e-02
126500000000.000000 +2.662462835e-01 -2.268816950e-01 +2.859028549e-01 +7.215731439e-01 +2.561615225e-01 +7.400856452e-01 +3.111010324e-01 -7.448892318e-02
127000000000.000000 +2.887863080e-01 -2.364570421e-01 +3.740883687e-01 +6.769630364e-01 +3.669488886e-01 +6.868380441e-01 +3.063769450e-01 -1.211184757e-01
127500000000.000000 +2.770712437e-01 -2.542467540e-01 +4.828729232e-01 +6.099178871e-01 +4.341384624e-01 +6.361156462e-01 +3.001938286e-01 -1.887414716e-01
128000000000.000000 +2.382144844e-01 -2.801331121e-01 +5.551762956e-01 +5.308815898e-01 +5.169567006e-01 +5.787485010e-01 +2.650200491e-01 -2.316509863e-01
128500000000.000000 +2.277287210e-01 -3.038025255e-01 +6.263008450e-01 +4.581033972e-01 +5.770470479e-01 +4.971760622e-01 +2.396978208e-01 -2.606227118e-01
129000000000.000000 +1.826577149e-01 -3.341815681e-01 +6.731189181e-01 +3.559988094e-01 +6.378767324e-01 +4.089262691e-01 +1.883781635e-01 -2.958731111e-01
129500000000.000000 +1.636333282e-01 -3.381384389e-01 +7.323318275e-01 +2.518206693e-01 +7.009009257e-01 +3.263360102e-01 +1.324303765e-01 -3.019730207e-01
130000000000.000000 +1.331706815e-01 -3.265984064e-01 +7.682477238e-01 +1.431606913e-01 +7.464346142e-01 +2.380803460e-01 +8.887356828e-02 -3.152022329e-01
130500000000.000000 +5.323238872e-02 -3.022925970e-01 +7.927549490e-01 +4.323904329e-02 +7.893563569e-01 +1.106996258e-01 +3.972989509e-02 -3.062398639e-01
131000000000.000000 +5.789948901e-02 -2.566514957e-01 +7.821866677e-01 -7.678598264e-02 +7.877473362e-01 -1.153739871e-02 +1.703948175e-02 -2.767811076e-01
131500000000.000000 +7.185926440e-04 -2.614184690e-01 +7.699656521e-01 -1.749194520e-01 +7.979122781e-01 -1.209668160e-01 -2.577994810e-02 -2.603657316e-01
132000000000.000000 -2.978974276e-02 -1.977513797e-01 +7.306102481e-01 -3.305062522e-01 +7.626779078e-01 -2.366520969e-01 -4.507397853e-02 -2.049924632e-01
132500000000.000000 -7.508993380e-03 -1.899144894e-01 +6.959446881e-01 -4.286739539e-01 +7.331987321e-01 -3.599936327e-01 -6.838899043e-02 -1.757610581e-01
133000000000.000000 -1.994403677e-02 -1.338753769e-01 +6.429726718e-01 -5.254130063e-01 +6.586302116e-01 -4.512003765e-01 -4.791514621e-02 -1.480865996e-01
133500000000.000000 -1.486065492e-02 -8.280793890e-02 +5.555103647e-01 -6.239800887e-01 +6.048839759e-01 -5.775779485e-01 -3.569387432e-02 -9.803660786e-02
134000000000.000000 +5.566208759e-03 -6.951982526e-02 +4.429540306e-01 -6.939497149e-01 +5.222641012e-01 -6.399345899e-01 +3.263718826e-03 -7.703138100e-02
134500000000.000000 +3.700128233e-02 -2.513053886e-02 +3.157997723e-01 -7.684163978e-01 +4.060336787e-01 -7.210939793e-01 +1.390243570e-02 -7.143518983e-02
135000000000.000000 +8.316456748e-02 -1.340809971e-02 +2.140829110e-01 -7.976530686e-01 +2.874525995e-01 -7.532722578e-01 +6.137721057e-02 -6.781807234e-02
135500000000.000000 +1.119100465e-01 -1.610191687e-02 +9.368239846e-02 -8.138167981e-01 +1.623018482e-01 -7.963172157e-01 +1.098545840e-01 -8.003249189e-02
136000000000.000000 +1.531247723e-01 -8.130543406e-03 -5.275570531e-02 -8.013365910e-01 +3.233279411e-02 -8.078442615e-01 +1.488454190e-01 -7.921661453e-02
136500000000.000000 +1.785634622e-01 -4.348726394e-02 -1.598751446e-01 -7.890987121e-01 -8.583701907e-02 -7.947955610e-01 +1.758328926e-01 -1.074678694e-01
137000000000.000000 +1.818728066e-01 -8.543490906e-02 -2.800218677e-01 -7.431365544e-01 -2.052846223e-01 -7.754465689e-01 +1.824735223e-01 -1.326597622e-01
137500000000.000000 +2.328333703e-01 -1.246383478e-01 -3.697521048e-01 -6.893704588e-01 -3.090710068e-01 -7.158568156e-01 +2.091094390e-01 -1.810171283e-01
138000000000.000000 +2.353401503e-01 -1.772244915e-01 -4.652737849e-01 -6.235778260e-01 -4.105160031e-01 -6.629171775e-01 +2.167090464e-01 -2.205603665e-01
138500000000.000000 +2.103999575e-01 -1.945437784e-01 -5.462976617e-01 -5.393891130e-01 -5.000026868e-01 -5.857292145e-01 +2.042712772e-01 -2.411538072e-01
139000000000.000000 +2.223646297e-01 -2.783533051e-01 -6.160851703e-01 -4.493025241e-01 -5.660619753e-01 -5.085106004e-01 +1.889396917e-01 -2.798900013e-01
139500000000.000000 +1.680105419e-01 -2.854859077e-01 -6.620131506e-01 -3.718203913e-01 -6.292423583e-01 -4.153502135e-01 +1.498448468e-01 -3.297035929e-01
140000000000.000000 +1.628432501e-01 -2.794300547e-01 -7.022766747e-01 -2.619714842e-01 -6.628819986e-01 -3.247089988e-01 +1.490691990e-01 -3.541257592e-01
140500000000.000000 +5.617136439e-02 -3.930614780e-01 -7.571379660e-01 -1.473753321e-01 -7.218325377e-01 -2.345763513e-01 +1.285778890e-01 -3.747306858e-01
141000000000.000000 -1.663515028e-02 -3.102755114e-01 -7.450684673e-01 -5.398250433e-02 -7.279891039e-01 -1.252373879e-01 +9.141641466e-02 -3.570755717e-01
141500000000.000000 -4.775302553e-02 -3.577427281e-01 -7.472401233e-01 +4.059537547e-02 -7.390851389e-01 -2.459477825e-02 +5.363938440e-02 -3.680741968e-01
142000000000.000000 -7.750950407e-02 -3.351342701e-01 -7.341208512e-01 +1.380111212e-01 -7.347813274e-01 +6.720034522e-02 +1.781580362e-02 -3.672975860e-01
142500000000.000000 -1.242544258e-01 -3.193963240e-01 -7.082058638e-01 +2.700012127e-01 -7.256737171e-01 +1.758763147e-01 -2.058514907e-02 -3.711041434e-01
143000000000.000000 -1.602455473e-01 -3.193894216e-01 -6.671624361e-01 +3.652525323e-01 -7.082062232e-01 +2.690033249e-01 -5.319679882e-02 -3.507530271e-01
143500000000.000000 -1.767559721e-01 -2.520159880e-01 -6.148298502e-01 +4.496144106e-01 -6.597044029e-01 +3.644230783e-01 -8.504929953e-02 -3.137814827e-01
144000000000.000000 -1.887021164e-01 -2.009597035e-01 -5.455278059e-01 +5.392796298e-01 -6.018641163e-01 +4.649840675e-01 -1.117941569e-01 -2.881554551e-01
144500000000.000000 -2.206791484e-01 -1.547402276e-01 -4.537949217e-01 +6.277210738e-01 -5.236432436e-01 +5.560094153e-01 -1.330627438e-01 -2.512689426e-01
145000000000.000000 -2.252347227e-01 -1.118962849e-01 -3.808900545e-01 +6.730953582e-01 -4.425596743e-01 +6.304149108e-01 -1.265719501e-01 -2.080916513e-01
145500000000.000000 -1.918226829e-01 -9.327668290e-02 -2.740315135e-01 +7.330908381e-01 -3.428870653e-01 +6.893900716e-01 -1.157703816e-01 -1.523656113e-01
146000000000.000000 -1.690964285e-01 -7.979899719e-02 -1.568291266e-01 +7.754085132e-01 -2.333431314e-01 +7.437790790e-01 -1.031246215e-01 -1.168307208e-01
146500000000.000000 -1.060628655e-01 -6.301175255e-02 -5.420584945e-02 +7.924462194e-01 -1.251433781e-01 +7.778411352e-01 -7.204697081e-02 -8.755929478e-02
147000000000.000000 -7.278785538e-02 -7.765517026e-02 +9.355333057e-02 +7.940621152e-01 -2.779410851e-03 +7.913809864e-01 -4.060897179e-02 -6.889593647e-02
147500000000.000000 -3.089671443e-02 -5.578011964e-02 +2.197322948e-01 +7.758368679e-01 +1.214808350e-01 +7.879168613e-01 -3.658214597e-03 -5.687446183e-02
148000000000.000000 +5.502905199e-04 -1.021661224e-01 +3.137620902e-01 +7.386123910e-01 +2.362619484e-01 +7.535162985e-01 +4.569573472e-02 -5.793992969e-02
148500000000.000000 -2.589172864e-03 -1.126411000e-01 +4.316918133e-01 +6.688299612e-01 +3.514533847e-01 +6.994777712e-01 +7.926673255e-02 -7.426883803e-02
149000000000.000000 +1.406503997e-02 -1.767388601e-01 +5.122814820e-01 +6.007064044e-01 +4.527802298e-01 +6.343307492e-01 +1.139368227e-01 -9.666937541e-02
149500000000.000000 -3.370750143e-02 -2.370565765e-01 +5.985336959e-01 +4.962380824e-01 +5.402313372e-01 +5.431001212e-01 +1.551753284e-01 -1.387148468e-01
150000000000.000000 +1.479215077e-02 -2.716615658e-01 +6.512931372e-01 +4.155498197e-01 +6.071726883e-01 +4.647826930e-01 +1.455472658e-01 -1.712393349e-01
